# vtk DataFile Version 5.1
vtk output
ASCII
DATASET UNSTRUCTURED_GRID
POINTS 1089 double
0.03 0 0 0.0303125 0 0 0.030625 0 0 
0.0309375 0 0 0.03125 0 0 0.0315625 0 0 
0.031875 0 0 0.0321875 0 0 0.0325 0 0 
0.0328125 0 0 0.033125 0 0 0.0334375 0 0 
0.03375 0 0 0.0340625 0 0 0.034375 0 0 
0.0346875 0 0 0.035 0 0 0.0353125 0 0 
0.035625 0 0 0.0359375 0 0 0.03625 0 0 
0.0365625 0 0 0.036875 0 0 0.0371875 0 0 
0.0375 0 0 0.0378125 0 0 0.038125 0 0 
0.0384375 0 0 0.03875 0 0 0.0390625 0 0 
0.039375 0 0 0.0396875 0 0 0.04 0 0 
0.029970174201 0.0013374073245 0 0.030282363516 0.0013513386508 0 0.03059455283 0.0013652699771 0 
0.030906742145 0.0013792013033 0 0.03121893146 0.0013931326296 0 0.031531120774 0.0014070639559 0 
0.031843310089 0.0014209952822 0 0.032155499403 0.0014349266085 0 0.032467688718 0.0014488579348 0 
0.032779878033 0.0014627892611 0 0.033092067347 0.0014767205874 0 0.033404256662 0.0014906519137 0 
0.033716445976 0.00150458324 0 0.034028635291 0.0015185145663 0 0.034340824606 0.0015324458926 0 
0.03465301392 0.0015463772189 0 0.034965203235 0.0015603085452 0 0.035277392549 0.0015742398715 0 
0.035589581864 0.0015881711978 0 0.035901771178 0.0016021025241 0 0.036213960493 0.0016160338504 0 
0.036526149808 0.0016299651767 0 0.036838339122 0.001643896503 0 0.037150528437 0.0016578278293 0 
0.037462717751 0.0016717591556 0 0.037774907066 0.0016856904819 0 0.038087096381 0.0016996218082 0 
0.038399285695 0.0017135531345 0 0.03871147501 0.0017274844608 0 0.039023664324 0.0017414157871 0 
0.039335853639 0.0017553471134 0 0.039648042954 0.0017692784396 0 0.039960232268 0.0017832097659 0 
0.029878647258 0.0026956331369 0 0.030189883167 0.0027237126488 0 0.030501119076 0.0027517921606 0 
0.030812354985 0.0027798716725 0 0.031123590894 0.0028079511843 0 0.031434826803 0.0028360306961 0 
0.031746062712 0.002864110208 0 0.032057298621 0.0028921897198 0 0.03236853453 0.0029202692317 0 
0.032679770439 0.0029483487435 0 0.032991006348 0.0029764282554 0 0.033302242257 0.0030045077672 0 
0.033613478166 0.003032587279 0 0.033924714075 0.0030606667909 0 0.034235949984 0.0030887463027 0 
0.034547185893 0.0031168258146 0 0.034858421801 0.0031449053264 0 0.03516965771 0.0031729848383 0 
0.035480893619 0.0032010643501 0 0.035792129528 0.0032291438619 0 0.036103365437 0.0032572233738 0 
0.036414601346 0.0032853028856 0 0.036725837255 0.0033133823975 0 0.037037073164 0.0033414619093 0 
0.037348309073 0.0033695414212 0 0.037659544982 0.003397620933 0 0.037970780891 0.0034257004448 0 
0.0382820168 0.0034537799567 0 0.038593252709 0.0034818594685 0 0.038904488618 0.0035099389804 0 
0.039215724527 0.0035380184922 0 0.039526960436 0.0035660980041 0 0.039838196345 0.0035941775159 0 
0.02972251814 0.0040708617533 0 0.030032127704 0.0041132665632 0 0.030341737268 0.0041556713732 0 
0.030651346832 0.0041980761831 0 0.030960956396 0.004240480993 0 0.03127056596 0.004282885803 0 
0.031580175524 0.0043252906129 0 0.031889785088 0.0043676954228 0 0.032199394652 0.0044101002328 0 
0.032509004216 0.0044525050427 0 0.03281861378 0.0044949098526 0 0.033128223344 0.0045373146625 0 
0.033437832908 0.0045797194725 0 0.033747442472 0.0046221242824 0 0.034057052035 0.0046645290923 0 
0.034366661599 0.0047069339023 0 0.034676271163 0.0047493387122 0 0.034985880727 0.0047917435221 0 
0.035295490291 0.0048341483321 0 0.035605099855 0.004876553142 0 0.035914709419 0.0049189579519 0 
0.036224318983 0.0049613627618 0 0.036533928547 0.0050037675718 0 0.036843538111 0.0050461723817 0 
0.037153147675 0.0050885771916 0 0.037462757239 0.0051309820016 0 0.037772366803 0.0051733868115 0 
0.038081976367 0.0052157916214 0 0.038391585931 0.0052581964314 0 0.038701195495 0.0053006012413 0 
0.039010805059 0.0053430060512 0 0.039320414623 0.0053854108611 0 0.039630024187 0.0054278156711 0 
0.029499161052 0.0054588915724 0 0.02980644398 0.0055157550262 0 0.030113726908 0.0055726184801 0 
0.030421009835 0.005629481934 0 0.030728292763 0.0056863453879 0 0.031035575691 0.0057432088418 0 
0.031342858618 0.0058000722956 0 0.031650141546 0.0058569357495 0 0.031957424474 0.0059137992034 0 
0.032264707401 0.0059706626573 0 0.032571990329 0.0060275261112 0 0.032879273256 0.006084389565 0 
0.033186556184 0.0061412530189 0 0.033493839112 0.0061981164728 0 0.033801122039 0.0062549799267 0 
0.034108404967 0.0063118433805 0 0.034415687895 0.0063687068344 0 0.034722970822 0.0064255702883 0 
0.03503025375 0.0064824337422 0 0.035337536677 0.0065392971961 0 0.035644819605 0.0065961606499 0 
0.035952102533 0.0066530241038 0 0.03625938546 0.0067098875577 0 0.036566668388 0.0067667510116 0 
0.036873951316 0.0068236144655 0 0.037181234243 0.0068804779193 0 0.037488517171 0.0069373413732 0 
0.037795800099 0.0069942048271 0 0.038103083026 0.007051068281 0 0.038410365954 0.0071079317348 0 
0.038717648881 0.0071647951887 0 0.039024931809 0.0072216586426 0 0.039332214737 0.0072785220965 0 
0.029206281031 0.0068551548722 0 0.029510513125 0.0069265627354 0 0.029814745219 0.0069979705987 0 
0.030118977314 0.0070693784619 0 0.030423209408 0.0071407863252 0 0.030727441502 0.0072121941885 0 
0.031031673596 0.0072836020517 0 0.03133590569 0.007355009915 0 0.031640137784 0.0074264177782 0 
0.031944369878 0.0074978256415 0 0.032248601972 0.0075692335047 0 0.032552834066 0.007640641368 0 
0.03285706616 0.0077120492312 0 0.033161298254 0.0077834570945 0 0.033465530348 0.0078548649577 0 
0.033769762442 0.007926272821 0 0.034073994536 0.0079976806842 0 0.034378226631 0.0080690885475 0 
0.034682458725 0.0081404964107 0 0.034986690819 0.008211904274 0 0.035290922913 0.0082833121372 0 
0.035595155007 0.0083547200005 0 0.035899387101 0.0084261278637 0 0.036203619195 0.008497535727 0 
0.036507851289 0.0085689435902 0 0.036812083383 0.0086403514535 0 0.037116315477 0.0087117593167 0 
0.037420547571 0.00878316718 0 0.037724779665 0.0088545750432 0 0.038029011759 0.0089259829065 0 
0.038333243854 0.0089973907698 0 0.038637475948 0.009068798633 0 0.038941708042 0.0091402064963 0 
0.028841968746 0.0082547464454 0 0.02914240592 0.0083407333875 0 0.029442843094 0.0084267203296 0 
0.029743280269 0.0085127072718 0 0.030043717443 0.0085986942139 0 0.030344154618 0.0086846811561 0 
0.030644591792 0.0087706680982 0 0.030945028967 0.0088566550403 0 0.031245466141 0.0089426419825 0 
0.031545903316 0.0090286289246 0 0.03184634049 0.0091146158668 0 0.032146777664 0.0092006028089 0 
0.032447214839 0.009286589751 0 0.032747652013 0.0093725766932 0 0.033048089188 0.0094585636353 0 
0.033348526362 0.0095445505774 0 0.033648963537 0.0096305375196 0 0.033949400711 0.0097165244617 0 
0.034249837885 0.0098025114039 0 0.03455027506 0.009888498346 0 0.034850712234 0.0099744852881 0 
0.035151149409 0.01006047223 0 0.035451586583 0.010146459172 0 0.035752023758 0.010232446115 0 
0.036052460932 0.010318433057 0 0.036352898106 0.010404419999 0 0.036653335281 0.010490406941 0 
0.036953772455 0.010576393883 0 0.03725420963 0.010662380825 0 0.037554646804 0.010748367767 0 
0.037855083979 0.01083435471 0 0.038155521153 0.010920341652 0 0.038455958327 0.011006328594 0 
0.028404752965 0.0096524612915 0 0.028700635809 0.0097530077632 0 0.028996518652 0.009853554235 0 
0.029292401495 0.0099541007068 0 0.029588284339 0.010054647179 0 0.029884167182 0.01015519365 0 
0.030180050026 0.010255740122 0 0.030475932869 0.010356286594 0 0.030771815712 0.010456833066 0 
0.031067698556 0.010557379538 0 0.031363581399 0.010657926009 0 0.031659464243 0.010758472481 0 
0.031955347086 0.010859018953 0 0.032251229929 0.010959565425 0 0.032547112773 0.011060111896 0 
0.032842995616 0.011160658368 0 0.033138878459 0.01126120484 0 0.033434761303 0.011361751312 0 
0.033730644146 0.011462297784 0 0.03402652699 0.011562844255 0 0.034322409833 0.011663390727 0 
0.034618292676 0.011763937199 0 0.03491417552 0.011864483671 0 0.035210058363 0.011965030143 0 
0.035505941207 0.012065576614 0 0.03580182405 0.012166123086 0 0.036097706893 0.012266669558 0 
0.036393589737 0.01236721603 0 0.03668947258 0.012467762501 0 0.036985355424 0.012568308973 0 
0.037281238267 0.012668855445 0 0.03757712111 0.012769401917 0 0.037873003954 0.012869948389 0 
0.027893649032 0.011042841287 0 0.028184207876 0.011157870884 0 0.02847476672 0.01127290048 0 
0.028765325564 0.011387930077 0 0.029055884408 0.011502959674 0 0.029346443252 0.011617989271 0 
0.029637002096 0.011733018867 0 0.02992756094 0.011848048464 0 0.030218119785 0.011963078061 0 
0.030508678629 0.012078107657 0 0.030799237473 0.012193137254 0 0.031089796317 0.012308166851 0 
0.031380355161 0.012423196448 0 0.031670914005 0.012538226044 0 0.031961472849 0.012653255641 0 
0.032252031693 0.012768285238 0 0.032542590537 0.012883314835 0 0.032833149381 0.012998344431 0 
0.033123708225 0.013113374028 0 0.033414267069 0.013228403625 0 0.033704825914 0.013343433222 0 
0.033995384758 0.013458462818 0 0.034285943602 0.013573492415 0 0.034576502446 0.013688522012 0 
0.03486706129 0.013803551609 0 0.035157620134 0.013918581205 0 0.035448178978 0.014033610802 0 
0.035738737822 0.014148640399 0 0.036029296666 0.014263669996 0 0.03631985551 0.014378699592 0 
0.036610414354 0.014493729189 0 0.036900973198 0.014608758786 0 0.037191532042 0.014723788382 0 
0.027308201633 0.012420230416 0 0.027592662066 0.012549607816 0 0.0278771225 0.012678985216 0 
0.028161582934 0.012808362617 0 0.028446043367 0.012937740017 0 0.028730503801 0.013067117417 0 
0.029014964235 0.013196494817 0 0.029299424668 0.013325872217 0 0.029583885102 0.013455249617 0 
0.029868345536 0.013584627018 0 0.030152805969 0.013714004418 0 0.030437266403 0.013843381818 0 
0.030721726837 0.013972759218 0 0.03100618727 0.014102136618 0 0.031290647704 0.014231514018 0 
0.031575108138 0.014360891419 0 0.031859568571 0.014490268819 0 0.032144029005 0.014619646219 0 
0.032428489439 0.014749023619 0 0.032712949873 0.014878401019 0 0.032997410306 0.015007778419 0 
0.03328187074 0.01513715582 0 0.033566331174 0.01526653322 0 0.033850791607 0.01539591062 0 
0.034135252041 0.01552528802 0 0.034419712475 0.01565466542 0 0.034704172908 0.01578404282 0 
0.034988633342 0.015913420221 0 0.035273093776 0.016042797621 0 0.035557554209 0.016172175021 0 
0.035842014643 0.016301552421 0 0.036126475077 0.016430929821 0 0.03641093551 0.016560307221 0 
0.026648520205 0.013778837792 0 0.026926108957 0.013922367352 0 0.027203697709 0.014065896912 0 
0.027481286461 0.014209426473 0 0.027758875213 0.014352956033 0 0.028036463966 0.014496485593 0 
0.028314052718 0.014640015154 0 0.02859164147 0.014783544714 0 0.028869230222 0.014927074274 0 
0.029146818974 0.015070603835 0 0.029424407726 0.015214133395 0 0.029701996478 0.015357662955 0 
0.029979585231 0.015501192516 0 0.030257173983 0.015644722076 0 0.030534762735 0.015788251636 0 
0.030812351487 0.015931781197 0 0.031089940239 0.016075310757 0 0.031367528991 0.016218840317 0 
0.031645117743 0.016362369878 0 0.031922706495 0.016505899438 0 0.032200295248 0.016649428998 0 
0.032477884 0.016792958559 0 0.032755472752 0.016936488119 0 0.033033061504 0.017080017679 0 
0.033310650256 0.01722354724 0 0.033588239008 0.0173670768 0 0.03386582776 0.01751060636 0 
0.034143416513 0.017654135921 0 0.034421005265 0.017797665481 0 0.034698594017 0.017941195041 0 
0.034976182769 0.018084724602 0 0.035253771521 0.018228254162 0 0.035531360273 0.018371783722 0 
0.025915305412 0.01511280733 0 0.02618525651 0.015270232406 0 0.026455207609 0.015427657482 0 
0.026725158707 0.015585082559 0 0.026995109805 0.015742507635 0 0.027265060903 0.015899932711 0 
0.027535012001 0.016057357788 0 0.027804963099 0.016214782864 0 0.028074914197 0.01637220794 0 
0.028344865295 0.016529633017 0 0.028614816393 0.016687058093 0 0.028884767491 0.016844483169 0 
0.029154718589 0.017001908246 0 0.029424669687 0.017159333322 0 0.029694620785 0.017316758398 0 
0.029964571883 0.017474183475 0 0.030234522981 0.017631608551 0 0.030504474079 0.017789033628 0 
0.030774425177 0.017946458704 0 0.031044376275 0.01810388378 0 0.031314327373 0.018261308857 0 
0.031584278471 0.018418733933 0 0.031854229569 0.018576159009 0 0.032124180667 0.018733584086 0 
0.032394131766 0.018891009162 0 0.032664082864 0.019048434238 0 0.032934033962 0.019205859315 0 
0.03320398506 0.019363284391 0 0.033473936158 0.019520709467 0 0.033743887256 0.019678134544 0 
0.034013838354 0.01983555962 0 0.034283789452 0.019992984696 0 0.03455374055 0.020150409773 0 
0.025109865337 0.016416292602 0 0.025371426434 0.016587295649 0 0.025632987531 0.016758298697 0 
0.025894548628 0.016929301745 0 0.026156109726 0.017100304793 0 0.026417670823 0.017271307841 0 
0.02667923192 0.017442310889 0 0.026940793017 0.017613313937 0 0.027202354115 0.017784316985 0 
0.027463915212 0.017955320033 0 0.027725476309 0.018126323081 0 0.027987037406 0.018297326129 0 
0.028248598504 0.018468329177 0 0.028510159601 0.018639332225 0 0.028771720698 0.018810335273 0 
0.029033281795 0.018981338321 0 0.029294842893 0.019152341368 0 0.02955640399 0.019323344416 0 
0.029817965087 0.019494347464 0 0.030079526184 0.019665350512 0 0.030341087282 0.01983635356 0 
0.030602648379 0.020007356608 0 0.030864209476 0.020178359656 0 0.031125770573 0.020349362704 0 
0.031387331671 0.020520365752 0 0.031648892768 0.0206913688 0 0.031910453865 0.020862371848 0 
0.032172014962 0.021033374896 0 0.03243357606 0.021204377944 0 0.032695137157 0.021375380992 0 
0.032956698254 0.02154638404 0 0.033218259351 0.021717387087 0 0.033479820449 0.021888390135 0 
0.024234120303 0.017683535086 0 0.024486559056 0.017867738576 0 0.02473899781 0.018051942067 0 
0.024991436563 0.018236145557 0 0.025243875316 0.018420349048 0 0.025496314069 0.018604552538 0 
0.025748752822 0.018788756029 0 0.026001191575 0.018972959519 0 0.026253630329 0.019157163009 0 
0.026506069082 0.0193413665 0 0.026758507835 0.01952556999 0 0.027010946588 0.019709773481 0 
0.027263385341 0.019893976971 0 0.027515824094 0.020078180462 0 0.027768262847 0.020262383952 0 
0.028020701601 0.020446587443 0 0.028273140354 0.020630790933 0 0.028525579107 0.020814994424 0 
0.02877801786 0.020999197914 0 0.029030456613 0.021183401405 0 0.029282895366 0.021367604895 0 
0.02953533412 0.021551808386 0 0.029787772873 0.021736011876 0 0.030040211626 0.021920215367 0 
0.030292650379 0.022104418857 0 0.030545089132 0.022288622348 0 0.030797527885 0.022472825838 0 
0.031049966639 0.022657029329 0 0.031302405392 0.022841232819 0 0.031554844145 0.023025436309 0 
0.031807282898 0.0232096398 0 0.032059721651 0.02339384329 0 0.032312160404 0.023578046781 0 
0.023290595627 0.018908943792 0 0.023533205998 0.019105911956 0 0.023775816369 0.019302880121 0 
0.024018426741 0.019499848285 0 0.024261037112 0.01969681645 0 0.024503647483 0.019893784614 0 
0.024746257854 0.020090752779 0 0.024988868225 0.020287720943 0 0.025231478596 0.020484689108 0 
0.025474088967 0.020681657272 0 0.025716699338 0.020878625437 0 0.02595930971 0.021075593601 0 
0.026201920081 0.021272561766 0 0.026444530452 0.02146952993 0 0.026687140823 0.021666498095 0 
0.026929751194 0.021863466259 0 0.027172361565 0.022060434424 0 0.027414971936 0.022257402588 0 
0.027657582307 0.022454370753 0 0.027900192678 0.022651338917 0 0.02814280305 0.022848307082 0 
0.028385413421 0.023045275246 0 0.028628023792 0.023242243411 0 0.028870634163 0.023439211575 0 
0.029113244534 0.02363617974 0 0.029355854905 0.023833147904 0 0.029598465276 0.024030116069 0 
0.029841075647 0.024227084233 0 0.030083686019 0.024424052398 0 0.03032629639 0.024621020562 0 
0.030568906761 0.024817988727 0 0.030811517132 0.025014956891 0 0.031054127503 0.025211925056 0 
0.022282401967 0.020087174082 0 0.022514510321 0.020296415478 0 0.022746618674 0.020505656875 0 
0.022978727028 0.020714898272 0 0.023210835382 0.020924139669 0 0.023442943736 0.021133381065 0 
0.02367505209 0.021342622462 0 0.023907160444 0.021551863859 0 0.024139268797 0.021761105255 0 
0.024371377151 0.021970346652 0 0.024603485505 0.022179588049 0 0.024835593859 0.022388829445 0 
0.025067702213 0.022598070842 0 0.025299810566 0.022807312239 0 0.02553191892 0.023016553635 0 
0.025764027274 0.023225795032 0 0.025996135628 0.023435036429 0 0.026228243982 0.023644277825 0 
0.026460352336 0.023853519222 0 0.026692460689 0.024062760619 0 0.026924569043 0.024272002015 0 
0.027156677397 0.024481243412 0 0.027388785751 0.024690484809 0 0.027620894105 0.024899726206 0 
0.027853002458 0.025108967602 0 0.028085110812 0.025318208999 0 0.028317219166 0.025527450396 0 
0.02854932752 0.025736691792 0 0.028781435874 0.025945933189 0 0.029013544228 0.026155174586 0 
0.029245652581 0.026364415982 0 0.029477760935 0.026573657379 0 0.029709869289 0.026782898776 0 
0.021213203436 0.021213203436 0 0.021434174305 0.021434174305 0 0.021655145174 0.021655145174 0 
0.021876116043 0.021876116043 0 0.022097086912 0.022097086912 0 0.022318057781 0.022318057781 0 
0.02253902865 0.02253902865 0 0.022759999519 0.022759999519 0 0.022980970389 0.022980970389 0 
0.023201941258 0.023201941258 0 0.023422912127 0.023422912127 0 0.023643882996 0.023643882996 0 
0.023864853865 0.023864853865 0 0.024085824734 0.024085824734 0 0.024306795603 0.024306795603 0 
0.024527766472 0.024527766472 0 0.024748737342 0.024748737342 0 0.024969708211 0.024969708211 0 
0.02519067908 0.02519067908 0 0.025411649949 0.025411649949 0 0.025632620818 0.025632620818 0 
0.025853591687 0.025853591687 0 0.026074562556 0.026074562556 0 0.026295533425 0.026295533425 0 
0.026516504294 0.026516504294 0 0.026737475164 0.026737475164 0 0.026958446033 0.026958446033 0 
0.027179416902 0.027179416902 0 0.027400387771 0.027400387771 0 0.02762135864 0.02762135864 0 
0.027842329509 0.027842329509 0 0.028063300378 0.028063300378 0 0.028284271247 0.028284271247 0 
0.020087174082 0.022282401967 0 0.020296415478 0.022514510321 0 0.020505656875 0.022746618674 0 
0.020714898272 0.022978727028 0 0.020924139669 0.023210835382 0 0.021133381065 0.023442943736 0 
0.021342622462 0.02367505209 0 0.021551863859 0.023907160444 0 0.021761105255 0.024139268797 0 
0.021970346652 0.024371377151 0 0.022179588049 0.024603485505 0 0.022388829445 0.024835593859 0 
0.022598070842 0.025067702213 0 0.022807312239 0.025299810566 0 0.023016553635 0.02553191892 0 
0.023225795032 0.025764027274 0 0.023435036429 0.025996135628 0 0.023644277825 0.026228243982 0 
0.023853519222 0.026460352336 0 0.024062760619 0.026692460689 0 0.024272002015 0.026924569043 0 
0.024481243412 0.027156677397 0 0.024690484809 0.027388785751 0 0.024899726206 0.027620894105 0 
0.025108967602 0.027853002458 0 0.025318208999 0.028085110812 0 0.025527450396 0.028317219166 0 
0.025736691792 0.02854932752 0 0.025945933189 0.028781435874 0 0.026155174586 0.029013544228 0 
0.026364415982 0.029245652581 0 0.026573657379 0.029477760935 0 0.026782898776 0.029709869289 0 
0.018908943792 0.023290595627 0 0.019105911956 0.023533205998 0 0.019302880121 0.023775816369 0 
0.019499848285 0.024018426741 0 0.01969681645 0.024261037112 0 0.019893784614 0.024503647483 0 
0.020090752779 0.024746257854 0 0.020287720943 0.024988868225 0 0.020484689108 0.025231478596 0 
0.020681657272 0.025474088967 0 0.020878625437 0.025716699338 0 0.021075593601 0.02595930971 0 
0.021272561766 0.026201920081 0 0.02146952993 0.026444530452 0 0.021666498095 0.026687140823 0 
0.021863466259 0.026929751194 0 0.022060434424 0.027172361565 0 0.022257402588 0.027414971936 0 
0.022454370753 0.027657582307 0 0.022651338917 0.027900192678 0 0.022848307082 0.02814280305 0 
0.023045275246 0.028385413421 0 0.023242243411 0.028628023792 0 0.023439211575 0.028870634163 0 
0.02363617974 0.029113244534 0 0.023833147904 0.029355854905 0 0.024030116069 0.029598465276 0 
0.024227084233 0.029841075647 0 0.024424052398 0.030083686019 0 0.024621020562 0.03032629639 0 
0.024817988727 0.030568906761 0 0.025014956891 0.030811517132 0 0.025211925056 0.031054127503 0 
0.017683535086 0.024234120303 0 0.017867738576 0.024486559056 0 0.018051942067 0.02473899781 0 
0.018236145557 0.024991436563 0 0.018420349048 0.025243875316 0 0.018604552538 0.025496314069 0 
0.018788756029 0.025748752822 0 0.018972959519 0.026001191575 0 0.019157163009 0.026253630329 0 
0.0193413665 0.026506069082 0 0.01952556999 0.026758507835 0 0.019709773481 0.027010946588 0 
0.019893976971 0.027263385341 0 0.020078180462 0.027515824094 0 0.020262383952 0.027768262847 0 
0.020446587443 0.028020701601 0 0.020630790933 0.028273140354 0 0.020814994424 0.028525579107 0 
0.020999197914 0.02877801786 0 0.021183401405 0.029030456613 0 0.021367604895 0.029282895366 0 
0.021551808386 0.02953533412 0 0.021736011876 0.029787772873 0 0.021920215367 0.030040211626 0 
0.022104418857 0.030292650379 0 0.022288622348 0.030545089132 0 0.022472825838 0.030797527885 0 
0.022657029329 0.031049966639 0 0.022841232819 0.031302405392 0 0.023025436309 0.031554844145 0 
0.0232096398 0.031807282898 0 0.02339384329 0.032059721651 0 0.023578046781 0.032312160404 0 
0.016416292602 0.025109865337 0 0.016587295649 0.025371426434 0 0.016758298697 0.025632987531 0 
0.016929301745 0.025894548628 0 0.017100304793 0.026156109726 0 0.017271307841 0.026417670823 0 
0.017442310889 0.02667923192 0 0.017613313937 0.026940793017 0 0.017784316985 0.027202354115 0 
0.017955320033 0.027463915212 0 0.018126323081 0.027725476309 0 0.018297326129 0.027987037406 0 
0.018468329177 0.028248598504 0 0.018639332225 0.028510159601 0 0.018810335273 0.028771720698 0 
0.018981338321 0.029033281795 0 0.019152341368 0.029294842893 0 0.019323344416 0.02955640399 0 
0.019494347464 0.029817965087 0 0.019665350512 0.030079526184 0 0.01983635356 0.030341087282 0 
0.020007356608 0.030602648379 0 0.020178359656 0.030864209476 0 0.020349362704 0.031125770573 0 
0.020520365752 0.031387331671 0 0.0206913688 0.031648892768 0 0.020862371848 0.031910453865 0 
0.021033374896 0.032172014962 0 0.021204377944 0.03243357606 0 0.021375380992 0.032695137157 0 
0.02154638404 0.032956698254 0 0.021717387087 0.033218259351 0 0.021888390135 0.033479820449 0 
0.01511280733 0.025915305412 0 0.015270232406 0.02618525651 0 0.015427657482 0.026455207609 0 
0.015585082559 0.026725158707 0 0.015742507635 0.026995109805 0 0.015899932711 0.027265060903 0 
0.016057357788 0.027535012001 0 0.016214782864 0.027804963099 0 0.01637220794 0.028074914197 0 
0.016529633017 0.028344865295 0 0.016687058093 0.028614816393 0 0.016844483169 0.028884767491 0 
0.017001908246 0.029154718589 0 0.017159333322 0.029424669687 0 0.017316758398 0.029694620785 0 
0.017474183475 0.029964571883 0 0.017631608551 0.030234522981 0 0.017789033628 0.030504474079 0 
0.017946458704 0.030774425177 0 0.01810388378 0.031044376275 0 0.018261308857 0.031314327373 0 
0.018418733933 0.031584278471 0 0.018576159009 0.031854229569 0 0.018733584086 0.032124180667 0 
0.018891009162 0.032394131766 0 0.019048434238 0.032664082864 0 0.019205859315 0.032934033962 0 
0.019363284391 0.03320398506 0 0.019520709467 0.033473936158 0 0.019678134544 0.033743887256 0 
0.01983555962 0.034013838354 0 0.019992984696 0.034283789452 0 0.020150409773 0.03455374055 0 
0.013778837792 0.026648520205 0 0.013922367352 0.026926108957 0 0.014065896912 0.027203697709 0 
0.014209426473 0.027481286461 0 0.014352956033 0.027758875213 0 0.014496485593 0.028036463966 0 
0.014640015154 0.028314052718 0 0.014783544714 0.02859164147 0 0.014927074274 0.028869230222 0 
0.015070603835 0.029146818974 0 0.015214133395 0.029424407726 0 0.015357662955 0.029701996478 0 
0.015501192516 0.029979585231 0 0.015644722076 0.030257173983 0 0.015788251636 0.030534762735 0 
0.015931781197 0.030812351487 0 0.016075310757 0.031089940239 0 0.016218840317 0.031367528991 0 
0.016362369878 0.031645117743 0 0.016505899438 0.031922706495 0 0.016649428998 0.032200295248 0 
0.016792958559 0.032477884 0 0.016936488119 0.032755472752 0 0.017080017679 0.033033061504 0 
0.01722354724 0.033310650256 0 0.0173670768 0.033588239008 0 0.01751060636 0.03386582776 0 
0.017654135921 0.034143416513 0 0.017797665481 0.034421005265 0 0.017941195041 0.034698594017 0 
0.018084724602 0.034976182769 0 0.018228254162 0.035253771521 0 0.018371783722 0.035531360273 0 
0.012420230416 0.027308201633 0 0.012549607816 0.027592662066 0 0.012678985216 0.0278771225 0 
0.012808362617 0.028161582934 0 0.012937740017 0.028446043367 0 0.013067117417 0.028730503801 0 
0.013196494817 0.029014964235 0 0.013325872217 0.029299424668 0 0.013455249617 0.029583885102 0 
0.013584627018 0.029868345536 0 0.013714004418 0.030152805969 0 0.013843381818 0.030437266403 0 
0.013972759218 0.030721726837 0 0.014102136618 0.03100618727 0 0.014231514018 0.031290647704 0 
0.014360891419 0.031575108138 0 0.014490268819 0.031859568571 0 0.014619646219 0.032144029005 0 
0.014749023619 0.032428489439 0 0.014878401019 0.032712949873 0 0.015007778419 0.032997410306 0 
0.01513715582 0.03328187074 0 0.01526653322 0.033566331174 0 0.01539591062 0.033850791607 0 
0.01552528802 0.034135252041 0 0.01565466542 0.034419712475 0 0.01578404282 0.034704172908 0 
0.015913420221 0.034988633342 0 0.016042797621 0.035273093776 0 0.016172175021 0.035557554209 0 
0.016301552421 0.035842014643 0 0.016430929821 0.036126475077 0 0.016560307221 0.03641093551 0 
0.011042841287 0.027893649032 0 0.011157870884 0.028184207876 0 0.01127290048 0.02847476672 0 
0.011387930077 0.028765325564 0 0.011502959674 0.029055884408 0 0.011617989271 0.029346443252 0 
0.011733018867 0.029637002096 0 0.011848048464 0.02992756094 0 0.011963078061 0.030218119785 0 
0.012078107657 0.030508678629 0 0.012193137254 0.030799237473 0 0.012308166851 0.031089796317 0 
0.012423196448 0.031380355161 0 0.012538226044 0.031670914005 0 0.012653255641 0.031961472849 0 
0.012768285238 0.032252031693 0 0.012883314835 0.032542590537 0 0.012998344431 0.032833149381 0 
0.013113374028 0.033123708225 0 0.013228403625 0.033414267069 0 0.013343433222 0.033704825914 0 
0.013458462818 0.033995384758 0 0.013573492415 0.034285943602 0 0.013688522012 0.034576502446 0 
0.013803551609 0.03486706129 0 0.013918581205 0.035157620134 0 0.014033610802 0.035448178978 0 
0.014148640399 0.035738737822 0 0.014263669996 0.036029296666 0 0.014378699592 0.03631985551 0 
0.014493729189 0.036610414354 0 0.014608758786 0.036900973198 0 0.014723788382 0.037191532042 0 
0.0096524612915 0.028404752965 0 0.0097530077632 0.028700635809 0 0.009853554235 0.028996518652 0 
0.0099541007068 0.029292401495 0 0.010054647179 0.029588284339 0 0.01015519365 0.029884167182 0 
0.010255740122 0.030180050026 0 0.010356286594 0.030475932869 0 0.010456833066 0.030771815712 0 
0.010557379538 0.031067698556 0 0.010657926009 0.031363581399 0 0.010758472481 0.031659464243 0 
0.010859018953 0.031955347086 0 0.010959565425 0.032251229929 0 0.011060111896 0.032547112773 0 
0.011160658368 0.032842995616 0 0.01126120484 0.033138878459 0 0.011361751312 0.033434761303 0 
0.011462297784 0.033730644146 0 0.011562844255 0.03402652699 0 0.011663390727 0.034322409833 0 
0.011763937199 0.034618292676 0 0.011864483671 0.03491417552 0 0.011965030143 0.035210058363 0 
0.012065576614 0.035505941207 0 0.012166123086 0.03580182405 0 0.012266669558 0.036097706893 0 
0.01236721603 0.036393589737 0 0.012467762501 0.03668947258 0 0.012568308973 0.036985355424 0 
0.012668855445 0.037281238267 0 0.012769401917 0.03757712111 0 0.012869948389 0.037873003954 0 
0.0082547464454 0.028841968746 0 0.0083407333875 0.02914240592 0 0.0084267203296 0.029442843094 0 
0.0085127072718 0.029743280269 0 0.0085986942139 0.030043717443 0 0.0086846811561 0.030344154618 0 
0.0087706680982 0.030644591792 0 0.0088566550403 0.030945028967 0 0.0089426419825 0.031245466141 0 
0.0090286289246 0.031545903316 0 0.0091146158668 0.03184634049 0 0.0092006028089 0.032146777664 0 
0.009286589751 0.032447214839 0 0.0093725766932 0.032747652013 0 0.0094585636353 0.033048089188 0 
0.0095445505774 0.033348526362 0 0.0096305375196 0.033648963537 0 0.0097165244617 0.033949400711 0 
0.0098025114039 0.034249837885 0 0.009888498346 0.03455027506 0 0.0099744852881 0.034850712234 0 
0.01006047223 0.035151149409 0 0.010146459172 0.035451586583 0 0.010232446115 0.035752023758 0 
0.010318433057 0.036052460932 0 0.010404419999 0.036352898106 0 0.010490406941 0.036653335281 0 
0.010576393883 0.036953772455 0 0.010662380825 0.03725420963 0 0.010748367767 0.037554646804 0 
0.01083435471 0.037855083979 0 0.010920341652 0.038155521153 0 0.011006328594 0.038455958327 0 
0.0068551548722 0.029206281031 0 0.0069265627354 0.029510513125 0 0.0069979705987 0.029814745219 0 
0.0070693784619 0.030118977314 0 0.0071407863252 0.030423209408 0 0.0072121941885 0.030727441502 0 
0.0072836020517 0.031031673596 0 0.007355009915 0.03133590569 0 0.0074264177782 0.031640137784 0 
0.0074978256415 0.031944369878 0 0.0075692335047 0.032248601972 0 0.007640641368 0.032552834066 0 
0.0077120492312 0.03285706616 0 0.0077834570945 0.033161298254 0 0.0078548649577 0.033465530348 0 
0.007926272821 0.033769762442 0 0.0079976806842 0.034073994536 0 0.0080690885475 0.034378226631 0 
0.0081404964107 0.034682458725 0 0.008211904274 0.034986690819 0 0.0082833121372 0.035290922913 0 
0.0083547200005 0.035595155007 0 0.0084261278637 0.035899387101 0 0.008497535727 0.036203619195 0 
0.0085689435902 0.036507851289 0 0.0086403514535 0.036812083383 0 0.0087117593167 0.037116315477 0 
0.00878316718 0.037420547571 0 0.0088545750432 0.037724779665 0 0.0089259829065 0.038029011759 0 
0.0089973907698 0.038333243854 0 0.009068798633 0.038637475948 0 0.0091402064963 0.038941708042 0 
0.0054588915724 0.029499161052 0 0.0055157550262 0.02980644398 0 0.0055726184801 0.030113726908 0 
0.005629481934 0.030421009835 0 0.0056863453879 0.030728292763 0 0.0057432088418 0.031035575691 0 
0.0058000722956 0.031342858618 0 0.0058569357495 0.031650141546 0 0.0059137992034 0.031957424474 0 
0.0059706626573 0.032264707401 0 0.0060275261112 0.032571990329 0 0.006084389565 0.032879273256 0 
0.0061412530189 0.033186556184 0 0.0061981164728 0.033493839112 0 0.0062549799267 0.033801122039 0 
0.0063118433805 0.034108404967 0 0.0063687068344 0.034415687895 0 0.0064255702883 0.034722970822 0 
0.0064824337422 0.03503025375 0 0.0065392971961 0.035337536677 0 0.0065961606499 0.035644819605 0 
0.0066530241038 0.035952102533 0 0.0067098875577 0.03625938546 0 0.0067667510116 0.036566668388 0 
0.0068236144655 0.036873951316 0 0.0068804779193 0.037181234243 0 0.0069373413732 0.037488517171 0 
0.0069942048271 0.037795800099 0 0.007051068281 0.038103083026 0 0.0071079317348 0.038410365954 0 
0.0071647951887 0.038717648881 0 0.0072216586426 0.039024931809 0 0.0072785220965 0.039332214737 0 
0.0040708617533 0.02972251814 0 0.0041132665632 0.030032127704 0 0.0041556713732 0.030341737268 0 
0.0041980761831 0.030651346832 0 0.004240480993 0.030960956396 0 0.004282885803 0.03127056596 0 
0.0043252906129 0.031580175524 0 0.0043676954228 0.031889785088 0 0.0044101002328 0.032199394652 0 
0.0044525050427 0.032509004216 0 0.0044949098526 0.03281861378 0 0.0045373146625 0.033128223344 0 
0.0045797194725 0.033437832908 0 0.0046221242824 0.033747442472 0 0.0046645290923 0.034057052035 0 
0.0047069339023 0.034366661599 0 0.0047493387122 0.034676271163 0 0.0047917435221 0.034985880727 0 
0.0048341483321 0.035295490291 0 0.004876553142 0.035605099855 0 0.0049189579519 0.035914709419 0 
0.0049613627618 0.036224318983 0 0.0050037675718 0.036533928547 0 0.0050461723817 0.036843538111 0 
0.0050885771916 0.037153147675 0 0.0051309820016 0.037462757239 0 0.0051733868115 0.037772366803 0 
0.0052157916214 0.038081976367 0 0.0052581964314 0.038391585931 0 0.0053006012413 0.038701195495 0 
0.0053430060512 0.039010805059 0 0.0053854108611 0.039320414623 0 0.0054278156711 0.039630024187 0 
0.0026956331369 0.029878647258 0 0.0027237126488 0.030189883167 0 0.0027517921606 0.030501119076 0 
0.0027798716725 0.030812354985 0 0.0028079511843 0.031123590894 0 0.0028360306961 0.031434826803 0 
0.002864110208 0.031746062712 0 0.0028921897198 0.032057298621 0 0.0029202692317 0.03236853453 0 
0.0029483487435 0.032679770439 0 0.0029764282554 0.032991006348 0 0.0030045077672 0.033302242257 0 
0.003032587279 0.033613478166 0 0.0030606667909 0.033924714075 0 0.0030887463027 0.034235949984 0 
0.0031168258146 0.034547185893 0 0.0031449053264 0.034858421801 0 0.0031729848383 0.03516965771 0 
0.0032010643501 0.035480893619 0 0.0032291438619 0.035792129528 0 0.0032572233738 0.036103365437 0 
0.0032853028856 0.036414601346 0 0.0033133823975 0.036725837255 0 0.0033414619093 0.037037073164 0 
0.0033695414212 0.037348309073 0 0.003397620933 0.037659544982 0 0.0034257004448 0.037970780891 0 
0.0034537799567 0.0382820168 0 0.0034818594685 0.038593252709 0 0.0035099389804 0.038904488618 0 
0.0035380184922 0.039215724527 0 0.0035660980041 0.039526960436 0 0.0035941775159 0.039838196345 0 
0.0013374073245 0.029970174201 0 0.0013513386508 0.030282363516 0 0.0013652699771 0.03059455283 0 
0.0013792013033 0.030906742145 0 0.0013931326296 0.03121893146 0 0.0014070639559 0.031531120774 0 
0.0014209952822 0.031843310089 0 0.0014349266085 0.032155499403 0 0.0014488579348 0.032467688718 0 
0.0014627892611 0.032779878033 0 0.0014767205874 0.033092067347 0 0.0014906519137 0.033404256662 0 
0.00150458324 0.033716445976 0 0.0015185145663 0.034028635291 0 0.0015324458926 0.034340824606 0 
0.0015463772189 0.03465301392 0 0.0015603085452 0.034965203235 0 0.0015742398715 0.035277392549 0 
0.0015881711978 0.035589581864 0 0.0016021025241 0.035901771178 0 0.0016160338504 0.036213960493 0 
0.0016299651767 0.036526149808 0 0.001643896503 0.036838339122 0 0.0016578278293 0.037150528437 0 
0.0016717591556 0.037462717751 0 0.0016856904819 0.037774907066 0 0.0016996218082 0.038087096381 0 
0.0017135531345 0.038399285695 0 0.0017274844608 0.03871147501 0 0.0017414157871 0.039023664324 0 
0.0017553471134 0.039335853639 0 0.0017692784396 0.039648042954 0 0.0017832097659 0.039960232268 0 
4.9065389334e-18 0.03 0 4.9832036042e-18 0.0303125 0 5.0598682751e-18 0.030625 0 
5.1365329459e-18 0.0309375 0 5.2131976167e-18 0.03125 0 5.2898622876e-18 0.0315625 0 
5.3665269584e-18 0.031875 0 5.4431916292e-18 0.0321875 0 5.5198563001e-18 0.0325 0 
5.5965209709e-18 0.0328125 0 5.6731856417e-18 0.033125 0 5.7498503126e-18 0.0334375 0 
5.8265149834e-18 0.03375 0 5.9031796542e-18 0.0340625 0 5.9798443251e-18 0.034375 0 
6.0565089959e-18 0.0346875 0 6.1331736667e-18 0.035 0 6.2098383376e-18 0.0353125 0 
6.2865030084e-18 0.035625 0 6.3631676792e-18 0.0359375 0 6.4398323501e-18 0.03625 0 
6.5164970209e-18 0.0365625 0 6.5931616917e-18 0.036875 0 6.6698263626e-18 0.0371875 0 
6.7464910334e-18 0.0375 0 6.8231557042e-18 0.0378125 0 6.8998203751e-18 0.038125 0 
6.9764850459e-18 0.0384375 0 7.0531497167e-18 0.03875 0 7.1298143876e-18 0.0390625 0 
7.2064790584e-18 0.039375 0 7.2831437292e-18 0.0396875 0 7.3598084001e-18 0.04 0 

CELLS 1025 4096
OFFSETS vtktypeint64
0 4 8 12 16 20 24 28 32 
36 40 44 48 52 56 60 64 68 
72 76 80 84 88 92 96 100 104 
108 112 116 120 124 128 132 136 140 
144 148 152 156 160 164 168 172 176 
180 184 188 192 196 200 204 208 212 
216 220 224 228 232 236 240 244 248 
252 256 260 264 268 272 276 280 284 
288 292 296 300 304 308 312 316 320 
324 328 332 336 340 344 348 352 356 
360 364 368 372 376 380 384 388 392 
396 400 404 408 412 416 420 424 428 
432 436 440 444 448 452 456 460 464 
468 472 476 480 484 488 492 496 500 
504 508 512 516 520 524 528 532 536 
540 544 548 552 556 560 564 568 572 
576 580 584 588 592 596 600 604 608 
612 616 620 624 628 632 636 640 644 
648 652 656 660 664 668 672 676 680 
684 688 692 696 700 704 708 712 716 
720 724 728 732 736 740 744 748 752 
756 760 764 768 772 776 780 784 788 
792 796 800 804 808 812 816 820 824 
828 832 836 840 844 848 852 856 860 
864 868 872 876 880 884 888 892 896 
900 904 908 912 916 920 924 928 932 
936 940 944 948 952 956 960 964 968 
972 976 980 984 988 992 996 1000 1004 
1008 1012 1016 1020 1024 1028 1032 1036 1040 
1044 1048 1052 1056 1060 1064 1068 1072 1076 
1080 1084 1088 1092 1096 1100 1104 1108 1112 
1116 1120 1124 1128 1132 1136 1140 1144 1148 
1152 1156 1160 1164 1168 1172 1176 1180 1184 
1188 1192 1196 1200 1204 1208 1212 1216 1220 
1224 1228 1232 1236 1240 1244 1248 1252 1256 
1260 1264 1268 1272 1276 1280 1284 1288 1292 
1296 1300 1304 1308 1312 1316 1320 1324 1328 
1332 1336 1340 1344 1348 1352 1356 1360 1364 
1368 1372 1376 1380 1384 1388 1392 1396 1400 
1404 1408 1412 1416 1420 1424 1428 1432 1436 
1440 1444 1448 1452 1456 1460 1464 1468 1472 
1476 1480 1484 1488 1492 1496 1500 1504 1508 
1512 1516 1520 1524 1528 1532 1536 1540 1544 
1548 1552 1556 1560 1564 1568 1572 1576 1580 
1584 1588 1592 1596 1600 1604 1608 1612 1616 
1620 1624 1628 1632 1636 1640 1644 1648 1652 
1656 1660 1664 1668 1672 1676 1680 1684 1688 
1692 1696 1700 1704 1708 1712 1716 1720 1724 
1728 1732 1736 1740 1744 1748 1752 1756 1760 
1764 1768 1772 1776 1780 1784 1788 1792 1796 
1800 1804 1808 1812 1816 1820 1824 1828 1832 
1836 1840 1844 1848 1852 1856 1860 1864 1868 
1872 1876 1880 1884 1888 1892 1896 1900 1904 
1908 1912 1916 1920 1924 1928 1932 1936 1940 
1944 1948 1952 1956 1960 1964 1968 1972 1976 
1980 1984 1988 1992 1996 2000 2004 2008 2012 
2016 2020 2024 2028 2032 2036 2040 2044 2048 
2052 2056 2060 2064 2068 2072 2076 2080 2084 
2088 2092 2096 2100 2104 2108 2112 2116 2120 
2124 2128 2132 2136 2140 2144 2148 2152 2156 
2160 2164 2168 2172 2176 2180 2184 2188 2192 
2196 2200 2204 2208 2212 2216 2220 2224 2228 
2232 2236 2240 2244 2248 2252 2256 2260 2264 
2268 2272 2276 2280 2284 2288 2292 2296 2300 
2304 2308 2312 2316 2320 2324 2328 2332 2336 
2340 2344 2348 2352 2356 2360 2364 2368 2372 
2376 2380 2384 2388 2392 2396 2400 2404 2408 
2412 2416 2420 2424 2428 2432 2436 2440 2444 
2448 2452 2456 2460 2464 2468 2472 2476 2480 
2484 2488 2492 2496 2500 2504 2508 2512 2516 
2520 2524 2528 2532 2536 2540 2544 2548 2552 
2556 2560 2564 2568 2572 2576 2580 2584 2588 
2592 2596 2600 2604 2608 2612 2616 2620 2624 
2628 2632 2636 2640 2644 2648 2652 2656 2660 
2664 2668 2672 2676 2680 2684 2688 2692 2696 
2700 2704 2708 2712 2716 2720 2724 2728 2732 
2736 2740 2744 2748 2752 2756 2760 2764 2768 
2772 2776 2780 2784 2788 2792 2796 2800 2804 
2808 2812 2816 2820 2824 2828 2832 2836 2840 
2844 2848 2852 2856 2860 2864 2868 2872 2876 
2880 2884 2888 2892 2896 2900 2904 2908 2912 
2916 2920 2924 2928 2932 2936 2940 2944 2948 
2952 2956 2960 2964 2968 2972 2976 2980 2984 
2988 2992 2996 3000 3004 3008 3012 3016 3020 
3024 3028 3032 3036 3040 3044 3048 3052 3056 
3060 3064 3068 3072 3076 3080 3084 3088 3092 
3096 3100 3104 3108 3112 3116 3120 3124 3128 
3132 3136 3140 3144 3148 3152 3156 3160 3164 
3168 3172 3176 3180 3184 3188 3192 3196 3200 
3204 3208 3212 3216 3220 3224 3228 3232 3236 
3240 3244 3248 3252 3256 3260 3264 3268 3272 
3276 3280 3284 3288 3292 3296 3300 3304 3308 
3312 3316 3320 3324 3328 3332 3336 3340 3344 
3348 3352 3356 3360 3364 3368 3372 3376 3380 
3384 3388 3392 3396 3400 3404 3408 3412 3416 
3420 3424 3428 3432 3436 3440 3444 3448 3452 
3456 3460 3464 3468 3472 3476 3480 3484 3488 
3492 3496 3500 3504 3508 3512 3516 3520 3524 
3528 3532 3536 3540 3544 3548 3552 3556 3560 
3564 3568 3572 3576 3580 3584 3588 3592 3596 
3600 3604 3608 3612 3616 3620 3624 3628 3632 
3636 3640 3644 3648 3652 3656 3660 3664 3668 
3672 3676 3680 3684 3688 3692 3696 3700 3704 
3708 3712 3716 3720 3724 3728 3732 3736 3740 
3744 3748 3752 3756 3760 3764 3768 3772 3776 
3780 3784 3788 3792 3796 3800 3804 3808 3812 
3816 3820 3824 3828 3832 3836 3840 3844 3848 
3852 3856 3860 3864 3868 3872 3876 3880 3884 
3888 3892 3896 3900 3904 3908 3912 3916 3920 
3924 3928 3932 3936 3940 3944 3948 3952 3956 
3960 3964 3968 3972 3976 3980 3984 3988 3992 
3996 4000 4004 4008 4012 4016 4020 4024 4028 
4032 4036 4040 4044 4048 4052 4056 4060 4064 
4068 4072 4076 4080 4084 4088 4092 4096 
CONNECTIVITY vtktypeint64
0 33 34 1 1 34 35 2 2 
35 36 3 3 36 37 4 4 37 
38 5 5 38 39 6 6 39 40 
7 7 40 41 8 8 41 42 9 
9 42 43 10 10 43 44 11 11 
44 45 12 12 45 46 13 13 46 
47 14 14 47 48 15 15 48 49 
16 16 49 50 17 17 50 51 18 
18 51 52 19 19 52 53 20 20 
53 54 21 21 54 55 22 22 55 
56 23 23 56 57 24 24 57 58 
25 25 58 59 26 26 59 60 27 
27 60 61 28 28 61 62 29 29 
62 63 30 30 63 64 31 31 64 
65 32 33 66 67 34 34 67 68 
35 35 68 69 36 36 69 70 37 
37 70 71 38 38 71 72 39 39 
72 73 40 40 73 74 41 41 74 
75 42 42 75 76 43 43 76 77 
44 44 77 78 45 45 78 79 46 
46 79 80 47 47 80 81 48 48 
81 82 49 49 82 83 50 50 83 
84 51 51 84 85 52 52 85 86 
53 53 86 87 54 54 87 88 55 
55 88 89 56 56 89 90 57 57 
90 91 58 58 91 92 59 59 92 
93 60 60 93 94 61 61 94 95 
62 62 95 96 63 63 96 97 64 
64 97 98 65 66 99 100 67 67 
100 101 68 68 101 102 69 69 102 
103 70 70 103 104 71 71 104 105 
72 72 105 106 73 73 106 107 74 
74 107 108 75 75 108 109 76 76 
109 110 77 77 110 111 78 78 111 
112 79 79 112 113 80 80 113 114 
81 81 114 115 82 82 115 116 83 
83 116 117 84 84 117 118 85 85 
118 119 86 86 119 120 87 87 120 
121 88 88 121 122 89 89 122 123 
90 90 123 124 91 91 124 125 92 
92 125 126 93 93 126 127 94 94 
127 128 95 95 128 129 96 96 129 
130 97 97 130 131 98 99 132 133 
100 100 133 134 101 101 134 135 102 
102 135 136 103 103 136 137 104 104 
137 138 105 105 138 139 106 106 139 
140 107 107 140 141 108 108 141 142 
109 109 142 143 110 110 143 144 111 
111 144 145 112 112 145 146 113 113 
146 147 114 114 147 148 115 115 148 
149 116 116 149 150 117 117 150 151 
118 118 151 152 119 119 152 153 120 
120 153 154 121 121 154 155 122 122 
155 156 123 123 156 157 124 124 157 
158 125 125 158 159 126 126 159 160 
127 127 160 161 128 128 161 162 129 
129 162 163 130 130 163 164 131 132 
165 166 133 133 166 167 134 134 167 
168 135 135 168 169 136 136 169 170 
137 137 170 171 138 138 171 172 139 
139 172 173 140 140 173 174 141 141 
174 175 142 142 175 176 143 143 176 
177 144 144 177 178 145 145 178 179 
146 146 179 180 147 147 180 181 148 
148 181 182 149 149 182 183 150 150 
183 184 151 151 184 185 152 152 185 
186 153 153 186 187 154 154 187 188 
155 155 188 189 156 156 189 190 157 
157 190 191 158 158 191 192 159 159 
192 193 160 160 193 194 161 161 194 
195 162 162 195 196 163 163 196 197 
164 165 198 199 166 166 199 200 167 
167 200 201 168 168 201 202 169 169 
202 203 170 170 203 204 171 171 204 
205 172 172 205 206 173 173 206 207 
174 174 207 208 175 175 208 209 176 
176 209 210 177 177 210 211 178 178 
211 212 179 179 212 213 180 180 213 
214 181 181 214 215 182 182 215 216 
183 183 216 217 184 184 217 218 185 
185 218 219 186 186 219 220 187 187 
220 221 188 188 221 222 189 189 222 
223 190 190 223 224 191 191 224 225 
192 192 225 226 193 193 226 227 194 
194 227 228 195 195 228 229 196 196 
229 230 197 198 231 232 199 199 232 
233 200 200 233 234 201 201 234 235 
202 202 235 236 203 203 236 237 204 
204 237 238 205 205 238 239 206 206 
239 240 207 207 240 241 208 208 241 
242 209 209 242 243 210 210 243 244 
211 211 244 245 212 212 245 246 213 
213 246 247 214 214 247 248 215 215 
248 249 216 216 249 250 217 217 250 
251 218 218 251 252 219 219 252 253 
220 220 253 254 221 221 254 255 222 
222 255 256 223 223 256 257 224 224 
257 258 225 225 258 259 226 226 259 
260 227 227 260 261 228 228 261 262 
229 229 262 263 230 231 264 265 232 
232 265 266 233 233 266 267 234 234 
267 268 235 235 268 269 236 236 269 
270 237 237 270 271 238 238 271 272 
239 239 272 273 240 240 273 274 241 
241 274 275 242 242 275 276 243 243 
276 277 244 244 277 278 245 245 278 
279 246 246 279 280 247 247 280 281 
248 248 281 282 249 249 282 283 250 
250 283 284 251 251 284 285 252 252 
285 286 253 253 286 287 254 254 287 
288 255 255 288 289 256 256 289 290 
257 257 290 291 258 258 291 292 259 
259 292 293 260 260 293 294 261 261 
294 295 262 262 295 296 263 264 297 
298 265 265 298 299 266 266 299 300 
267 267 300 301 268 268 301 302 269 
269 302 303 270 270 303 304 271 271 
304 305 272 272 305 306 273 273 306 
307 274 274 307 308 275 275 308 309 
276 276 309 310 277 277 310 311 278 
278 311 312 279 279 312 313 280 280 
313 314 281 281 314 315 282 282 315 
316 283 283 316 317 284 284 317 318 
285 285 318 319 286 286 319 320 287 
287 320 321 288 288 321 322 289 289 
322 323 290 290 323 324 291 291 324 
325 292 292 325 326 293 293 326 327 
294 294 327 328 295 295 328 329 296 
297 330 331 298 298 331 332 299 299 
332 333 300 300 333 334 301 301 334 
335 302 302 335 336 303 303 336 337 
304 304 337 338 305 305 338 339 306 
306 339 340 307 307 340 341 308 308 
341 342 309 309 342 343 310 310 343 
344 311 311 344 345 312 312 345 346 
313 313 346 347 314 314 347 348 315 
315 348 349 316 316 349 350 317 317 
350 351 318 318 351 352 319 319 352 
353 320 320 353 354 321 321 354 355 
322 322 355 356 323 323 356 357 324 
324 357 358 325 325 358 359 326 326 
359 360 327 327 360 361 328 328 361 
362 329 330 363 364 331 331 364 365 
332 332 365 366 333 333 366 367 334 
334 367 368 335 335 368 369 336 336 
369 370 337 337 370 371 338 338 371 
372 339 339 372 373 340 340 373 374 
341 341 374 375 342 342 375 376 343 
343 376 377 344 344 377 378 345 345 
378 379 346 346 379 380 347 347 380 
381 348 348 381 382 349 349 382 383 
350 350 383 384 351 351 384 385 352 
352 385 386 353 353 386 387 354 354 
387 388 355 355 388 389 356 356 389 
390 357 357 390 391 358 358 391 392 
359 359 392 393 360 360 393 394 361 
361 394 395 362 363 396 397 364 364 
397 398 365 365 398 399 366 366 399 
400 367 367 400 401 368 368 401 402 
369 369 402 403 370 370 403 404 371 
371 404 405 372 372 405 406 373 373 
406 407 374 374 407 408 375 375 408 
409 376 376 409 410 377 377 410 411 
378 378 411 412 379 379 412 413 380 
380 413 414 381 381 414 415 382 382 
415 416 383 383 416 417 384 384 417 
418 385 385 418 419 386 386 419 420 
387 387 420 421 388 388 421 422 389 
389 422 423 390 390 423 424 391 391 
424 425 392 392 425 426 393 393 426 
427 394 394 427 428 395 396 429 430 
397 397 430 431 398 398 431 432 399 
399 432 433 400 400 433 434 401 401 
434 435 402 402 435 436 403 403 436 
437 404 404 437 438 405 405 438 439 
406 406 439 440 407 407 440 441 408 
408 441 442 409 409 442 443 410 410 
443 444 411 411 444 445 412 412 445 
446 413 413 446 447 414 414 447 448 
415 415 448 449 416 416 449 450 417 
417 450 451 418 418 451 452 419 419 
452 453 420 420 453 454 421 421 454 
455 422 422 455 456 423 423 456 457 
424 424 457 458 425 425 458 459 426 
426 459 460 427 427 460 461 428 429 
462 463 430 430 463 464 431 431 464 
465 432 432 465 466 433 433 466 467 
434 434 467 468 435 435 468 469 436 
436 469 470 437 437 470 471 438 438 
471 472 439 439 472 473 440 440 473 
474 441 441 474 475 442 442 475 476 
443 443 476 477 444 444 477 478 445 
445 478 479 446 446 479 480 447 447 
480 481 448 448 481 482 449 449 482 
483 450 450 483 484 451 451 484 485 
452 452 485 486 453 453 486 487 454 
454 487 488 455 455 488 489 456 456 
489 490 457 457 490 491 458 458 491 
492 459 459 492 493 460 460 493 494 
461 462 495 496 463 463 496 497 464 
464 497 498 465 465 498 499 466 466 
499 500 467 467 500 501 468 468 501 
502 469 469 502 503 470 470 503 504 
471 471 504 505 472 472 505 506 473 
473 506 507 474 474 507 508 475 475 
508 509 476 476 509 510 477 477 510 
511 478 478 511 512 479 479 512 513 
480 480 513 514 481 481 514 515 482 
482 515 516 483 483 516 517 484 484 
517 518 485 485 518 519 486 486 519 
520 487 487 520 521 488 488 521 522 
489 489 522 523 490 490 523 524 491 
491 524 525 492 492 525 526 493 493 
526 527 494 495 528 529 496 496 529 
530 497 497 530 531 498 498 531 532 
499 499 532 533 500 500 533 534 501 
501 534 535 502 502 535 536 503 503 
536 537 504 504 537 538 505 505 538 
539 506 506 539 540 507 507 540 541 
508 508 541 542 509 509 542 543 510 
510 543 544 511 511 544 545 512 512 
545 546 513 513 546 547 514 514 547 
548 515 515 548 549 516 516 549 550 
517 517 550 551 518 518 551 552 519 
519 552 553 520 520 553 554 521 521 
554 555 522 522 555 556 523 523 556 
557 524 524 557 558 525 525 558 559 
526 526 559 560 527 528 561 562 529 
529 562 563 530 530 563 564 531 531 
564 565 532 532 565 566 533 533 566 
567 534 534 567 568 535 535 568 569 
536 536 569 570 537 537 570 571 538 
538 571 572 539 539 572 573 540 540 
573 574 541 541 574 575 542 542 575 
576 543 543 576 577 544 544 577 578 
545 545 578 579 546 546 579 580 547 
547 580 581 548 548 581 582 549 549 
582 583 550 550 583 584 551 551 584 
585 552 552 585 586 553 553 586 587 
554 554 587 588 555 555 588 589 556 
556 589 590 557 557 590 591 558 558 
591 592 559 559 592 593 560 561 594 
595 562 562 595 596 563 563 596 597 
564 564 597 598 565 565 598 599 566 
566 599 600 567 567 600 601 568 568 
601 602 569 569 602 603 570 570 603 
604 571 571 604 605 572 572 605 606 
573 573 606 607 574 574 607 608 575 
575 608 609 576 576 609 610 577 577 
610 611 578 578 611 612 579 579 612 
613 580 580 613 614 581 581 614 615 
582 582 615 616 583 583 616 617 584 
584 617 618 585 585 618 619 586 586 
619 620 587 587 620 621 588 588 621 
622 589 589 622 623 590 590 623 624 
591 591 624 625 592 592 625 626 593 
594 627 628 595 595 628 629 596 596 
629 630 597 597 630 631 598 598 631 
632 599 599 632 633 600 600 633 634 
601 601 634 635 602 602 635 636 603 
603 636 637 604 604 637 638 605 605 
638 639 606 606 639 640 607 607 640 
641 608 608 641 642 609 609 642 643 
610 610 643 644 611 611 644 645 612 
612 645 646 613 613 646 647 614 614 
647 648 615 615 648 649 616 616 649 
650 617 617 650 651 618 618 651 652 
619 619 652 653 620 620 653 654 621 
621 654 655 622 622 655 656 623 623 
656 657 624 624 657 658 625 625 658 
659 626 627 660 661 628 628 661 662 
629 629 662 663 630 630 663 664 631 
631 664 665 632 632 665 666 633 633 
666 667 634 634 667 668 635 635 668 
669 636 636 669 670 637 637 670 671 
638 638 671 672 639 639 672 673 640 
640 673 674 641 641 674 675 642 642 
675 676 643 643 676 677 644 644 677 
678 645 645 678 679 646 646 679 680 
647 647 680 681 648 648 681 682 649 
649 682 683 650 650 683 684 651 651 
684 685 652 652 685 686 653 653 686 
687 654 654 687 688 655 655 688 689 
656 656 689 690 657 657 690 691 658 
658 691 692 659 660 693 694 661 661 
694 695 662 662 695 696 663 663 696 
697 664 664 697 698 665 665 698 699 
666 666 699 700 667 667 700 701 668 
668 701 702 669 669 702 703 670 670 
703 704 671 671 704 705 672 672 705 
706 673 673 706 707 674 674 707 708 
675 675 708 709 676 676 709 710 677 
677 710 711 678 678 711 712 679 679 
712 713 680 680 713 714 681 681 714 
715 682 682 715 716 683 683 716 717 
684 684 717 718 685 685 718 719 686 
686 719 720 687 687 720 721 688 688 
721 722 689 689 722 723 690 690 723 
724 691 691 724 725 692 693 726 727 
694 694 727 728 695 695 728 729 696 
696 729 730 697 697 730 731 698 698 
731 732 699 699 732 733 700 700 733 
734 701 701 734 735 702 702 735 736 
703 703 736 737 704 704 737 738 705 
705 738 739 706 706 739 740 707 707 
740 741 708 708 741 742 709 709 742 
743 710 710 743 744 711 711 744 745 
712 712 745 746 713 713 746 747 714 
714 747 748 715 715 748 749 716 716 
749 750 717 717 750 751 718 718 751 
752 719 719 752 753 720 720 753 754 
721 721 754 755 722 722 755 756 723 
723 756 757 724 724 757 758 725 726 
759 760 727 727 760 761 728 728 761 
762 729 729 762 763 730 730 763 764 
731 731 764 765 732 732 765 766 733 
733 766 767 734 734 767 768 735 735 
768 769 736 736 769 770 737 737 770 
771 738 738 771 772 739 739 772 773 
740 740 773 774 741 741 774 775 742 
742 775 776 743 743 776 777 744 744 
777 778 745 745 778 779 746 746 779 
780 747 747 780 781 748 748 781 782 
749 749 782 783 750 750 783 784 751 
751 784 785 752 752 785 786 753 753 
786 787 754 754 787 788 755 755 788 
789 756 756 789 790 757 757 790 791 
758 759 792 793 760 760 793 794 761 
761 794 795 762 762 795 796 763 763 
796 797 764 764 797 798 765 765 798 
799 766 766 799 800 767 767 800 801 
768 768 801 802 769 769 802 803 770 
770 803 804 771 771 804 805 772 772 
805 806 773 773 806 807 774 774 807 
808 775 775 808 809 776 776 809 810 
777 777 810 811 778 778 811 812 779 
779 812 813 780 780 813 814 781 781 
814 815 782 782 815 816 783 783 816 
817 784 784 817 818 785 785 818 819 
786 786 819 820 787 787 820 821 788 
788 821 822 789 789 822 823 790 790 
823 824 791 792 825 826 793 793 826 
827 794 794 827 828 795 795 828 829 
796 796 829 830 797 797 830 831 798 
798 831 832 799 799 832 833 800 800 
833 834 801 801 834 835 802 802 835 
836 803 803 836 837 804 804 837 838 
805 805 838 839 806 806 839 840 807 
807 840 841 808 808 841 842 809 809 
842 843 810 810 843 844 811 811 844 
845 812 812 845 846 813 813 846 847 
814 814 847 848 815 815 848 849 816 
816 849 850 817 817 850 851 818 818 
851 852 819 819 852 853 820 820 853 
854 821 821 854 855 822 822 855 856 
823 823 856 857 824 825 858 859 826 
826 859 860 827 827 860 861 828 828 
861 862 829 829 862 863 830 830 863 
864 831 831 864 865 832 832 865 866 
833 833 866 867 834 834 867 868 835 
835 868 869 836 836 869 870 837 837 
870 871 838 838 871 872 839 839 872 
873 840 840 873 874 841 841 874 875 
842 842 875 876 843 843 876 877 844 
844 877 878 845 845 878 879 846 846 
879 880 847 847 880 881 848 848 881 
882 849 849 882 883 850 850 883 884 
851 851 884 885 852 852 885 886 853 
853 886 887 854 854 887 888 855 855 
888 889 856 856 889 890 857 858 891 
892 859 859 892 893 860 860 893 894 
861 861 894 895 862 862 895 896 863 
863 896 897 864 864 897 898 865 865 
898 899 866 866 899 900 867 867 900 
901 868 868 901 902 869 869 902 903 
870 870 903 904 871 871 904 905 872 
872 905 906 873 873 906 907 874 874 
907 908 875 875 908 909 876 876 909 
910 877 877 910 911 878 878 911 912 
879 879 912 913 880 880 913 914 881 
881 914 915 882 882 915 916 883 883 
916 917 884 884 917 918 885 885 918 
919 886 886 919 920 887 887 920 921 
888 888 921 922 889 889 922 923 890 
891 924 925 892 892 925 926 893 893 
926 927 894 894 927 928 895 895 928 
929 896 896 929 930 897 897 930 931 
898 898 931 932 899 899 932 933 900 
900 933 934 901 901 934 935 902 902 
935 936 903 903 936 937 904 904 937 
938 905 905 938 939 906 906 939 940 
907 907 940 941 908 908 941 942 909 
909 942 943 910 910 943 944 911 911 
944 945 912 912 945 946 913 913 946 
947 914 914 947 948 915 915 948 949 
916 916 949 950 917 917 950 951 918 
918 951 952 919 919 952 953 920 920 
953 954 921 921 954 955 922 922 955 
956 923 924 957 958 925 925 958 959 
926 926 959 960 927 927 960 961 928 
928 961 962 929 929 962 963 930 930 
963 964 931 931 964 965 932 932 965 
966 933 933 966 967 934 934 967 968 
935 935 968 969 936 936 969 970 937 
937 970 971 938 938 971 972 939 939 
972 973 940 940 973 974 941 941 974 
975 942 942 975 976 943 943 976 977 
944 944 977 978 945 945 978 979 946 
946 979 980 947 947 980 981 948 948 
981 982 949 949 982 983 950 950 983 
984 951 951 984 985 952 952 985 986 
953 953 986 987 954 954 987 988 955 
955 988 989 956 957 990 991 958 958 
991 992 959 959 992 993 960 960 993 
994 961 961 994 995 962 962 995 996 
963 963 996 997 964 964 997 998 965 
965 998 999 966 966 999 1000 967 967 
1000 1001 968 968 1001 1002 969 969 1002 
1003 970 970 1003 1004 971 971 1004 1005 
972 972 1005 1006 973 973 1006 1007 974 
974 1007 1008 975 975 1008 1009 976 976 
1009 1010 977 977 1010 1011 978 978 1011 
1012 979 979 1012 1013 980 980 1013 1014 
981 981 1014 1015 982 982 1015 1016 983 
983 1016 1017 984 984 1017 1018 985 985 
1018 1019 986 986 1019 1020 987 987 1020 
1021 988 988 1021 1022 989 990 1023 1024 
991 991 1024 1025 992 992 1025 1026 993 
993 1026 1027 994 994 1027 1028 995 995 
1028 1029 996 996 1029 1030 997 997 1030 
1031 998 998 1031 1032 999 999 1032 1033 
1000 1000 1033 1034 1001 1001 1034 1035 1002 
1002 1035 1036 1003 1003 1036 1037 1004 1004 
1037 1038 1005 1005 1038 1039 1006 1006 1039 
1040 1007 1007 1040 1041 1008 1008 1041 1042 
1009 1009 1042 1043 1010 1010 1043 1044 1011 
1011 1044 1045 1012 1012 1045 1046 1013 1013 
1046 1047 1014 1014 1047 1048 1015 1015 1048 
1049 1016 1016 1049 1050 1017 1017 1050 1051 
1018 1018 1051 1052 1019 1019 1052 1053 1020 
1020 1053 1054 1021 1021 1054 1055 1022 1023 
1056 1057 1024 1024 1057 1058 1025 1025 1058 
1059 1026 1026 1059 1060 1027 1027 1060 1061 
1028 1028 1061 1062 1029 1029 1062 1063 1030 
1030 1063 1064 1031 1031 1064 1065 1032 1032 
1065 1066 1033 1033 1066 1067 1034 1034 1067 
1068 1035 1035 1068 1069 1036 1036 1069 1070 
1037 1037 1070 1071 1038 1038 1071 1072 1039 
1039 1072 1073 1040 1040 1073 1074 1041 1041 
1074 1075 1042 1042 1075 1076 1043 1043 1076 
1077 1044 1044 1077 1078 1045 1045 1078 1079 
1046 1046 1079 1080 1047 1047 1080 1081 1048 
1048 1081 1082 1049 1049 1082 1083 1050 1050 
1083 1084 1051 1051 1084 1085 1052 1052 1085 
1086 1053 1053 1086 1087 1054 1054 1087 1088 
1055 
CELL_TYPES 1024
9
9
9
9
9
9
9
9
9
9
9
9
9
9
9
9
9
9
9
9
9
9
9
9
9
9
9
9
9
9
9
9
9
9
9
9
9
9
9
9
9
9
9
9
9
9
9
9
9
9
9
9
9
9
9
9
9
9
9
9
9
9
9
9
9
9
9
9
9
9
9
9
9
9
9
9
9
9
9
9
9
9
9
9
9
9
9
9
9
9
9
9
9
9
9
9
9
9
9
9
9
9
9
9
9
9
9
9
9
9
9
9
9
9
9
9
9
9
9
9
9
9
9
9
9
9
9
9
9
9
9
9
9
9
9
9
9
9
9
9
9
9
9
9
9
9
9
9
9
9
9
9
9
9
9
9
9
9
9
9
9
9
9
9
9
9
9
9
9
9
9
9
9
9
9
9
9
9
9
9
9
9
9
9
9
9
9
9
9
9
9
9
9
9
9
9
9
9
9
9
9
9
9
9
9
9
9
9
9
9
9
9
9
9
9
9
9
9
9
9
9
9
9
9
9
9
9
9
9
9
9
9
9
9
9
9
9
9
9
9
9
9
9
9
9
9
9
9
9
9
9
9
9
9
9
9
9
9
9
9
9
9
9
9
9
9
9
9
9
9
9
9
9
9
9
9
9
9
9
9
9
9
9
9
9
9
9
9
9
9
9
9
9
9
9
9
9
9
9
9
9
9
9
9
9
9
9
9
9
9
9
9
9
9
9
9
9
9
9
9
9
9
9
9
9
9
9
9
9
9
9
9
9
9
9
9
9
9
9
9
9
9
9
9
9
9
9
9
9
9
9
9
9
9
9
9
9
9
9
9
9
9
9
9
9
9
9
9
9
9
9
9
9
9
9
9
9
9
9
9
9
9
9
9
9
9
9
9
9
9
9
9
9
9
9
9
9
9
9
9
9
9
9
9
9
9
9
9
9
9
9
9
9
9
9
9
9
9
9
9
9
9
9
9
9
9
9
9
9
9
9
9
9
9
9
9
9
9
9
9
9
9
9
9
9
9
9
9
9
9
9
9
9
9
9
9
9
9
9
9
9
9
9
9
9
9
9
9
9
9
9
9
9
9
9
9
9
9
9
9
9
9
9
9
9
9
9
9
9
9
9
9
9
9
9
9
9
9
9
9
9
9
9
9
9
9
9
9
9
9
9
9
9
9
9
9
9
9
9
9
9
9
9
9
9
9
9
9
9
9
9
9
9
9
9
9
9
9
9
9
9
9
9
9
9
9
9
9
9
9
9
9
9
9
9
9
9
9
9
9
9
9
9
9
9
9
9
9
9
9
9
9
9
9
9
9
9
9
9
9
9
9
9
9
9
9
9
9
9
9
9
9
9
9
9
9
9
9
9
9
9
9
9
9
9
9
9
9
9
9
9
9
9
9
9
9
9
9
9
9
9
9
9
9
9
9
9
9
9
9
9
9
9
9
9
9
9
9
9
9
9
9
9
9
9
9
9
9
9
9
9
9
9
9
9
9
9
9
9
9
9
9
9
9
9
9
9
9
9
9
9
9
9
9
9
9
9
9
9
9
9
9
9
9
9
9
9
9
9
9
9
9
9
9
9
9
9
9
9
9
9
9
9
9
9
9
9
9
9
9
9
9
9
9
9
9
9
9
9
9
9
9
9
9
9
9
9
9
9
9
9
9
9
9
9
9
9
9
9
9
9
9
9
9
9
9
9
9
9
9
9
9
9
9
9
9
9
9
9
9
9
9
9
9
9
9
9
9
9
9
9
9
9
9
9
9
9
9
9
9
9
9
9
9
9
9
9
9
9
9
9
9
9
9
9
9
9
9
9
9
9
9
9
9
9
9
9
9
9
9
9
9
9
9
9
9
9
9
9
9
9
9
9
9
9
9
9
9
9
9
9
9
9
9
9
9
9
9
9
9
9
9
9
9
9
9
9
9
9
9
9
9
9
9
9
9
9
9
9
9
9
9
9
9
9
9
9
9
9
9
9
9
9
9
9
9
9
9
9
9
9
9
9
9
9
9
9
9
9
9
9
9
9
9
9
9
9
9
9
9
9
9
9
9
9
9
9
9
9
9
9
9
9
9
9
9
9
9
9
9
9
9
9
9
9
9
9
9
9
9
9
9
9
9
9
9
9
9
9
9
9
9
9
9
9
9
9
9
9
9
9
9
9
9
9
9
9
9
9
9
9
9
9
9
9
9
9
9
9
9
9
9
9
9
9
9
9
9
9
9
9
9
9
9
9
9
9
9
9
9
9
9
9
9
9
9
9
9
9
9
9
9
9
9
9
9
9
9
9
9
9
9
9
9
9
9
9
9
9
9
9
9
9
9

POINT_DATA 1089
FIELD FieldData 11
P1 1 1089 double
-10606215.52 3242295.9685 3258950.255 -1996659.4836 -3964940.0706 -3694798.0323 -2235139.8951 1622001.4372 9084593.0608 
16947913.863 22007242.731 25284049.56 27799804.245 29641118.345 30894603.421 31689341.002 32154412.619 32339586.612 
32294631.319 32034851.842 31575553.279 30900410.033 29993096.503 28790495.246 27229488.819 25242162.139 22760600.124 
19357062.485 14603808.937 9456756.145 4871820.7749 1038479.6306 -1853790.4844 -10797699.431 3300832.1607 3317787.1217 
-2032707.0455 -4036522.8387 -3761503.673 -2275492.9635 1651284.9425 9248605.6981 17253890.37 22404560.024 25740526.106 
28301700.058 30176257.12 31452372.531 32261458.252 32734926.241 32923443.353 32877676.441 32613206.921 32145616.214 
31458283.976 30534589.868 29310276.928 27721088.195 25697882.452 23171518.482 19706533.602 14867465.131 9627487.7906 
4959776.3031 1057228.2732 -1887258.6942 -10983196.43 3357538.1736 3374784.4098 -2067627.5424 -4105867.5035 -3826123.6994 
-2314584.3557 1679652.8751 9407490.3409 17550300.261 22789454.853 26182730.522 28787903.67 30694664.324 31992702.515 
32815687.768 33297289.609 33489045.315 33442492.158 33173479.236 32697855.644 31998715.514 31059152.981 29813807.192 
28197317.297 26139354.28 23569589.126 20045078.205 15122877.888 9792881.3649 5044981.8258 1075390.7227 -1919680.4919 
-11161722.918 3412113.3149 3429639.8802 -2101235.817 -4172606.3721 -3888315.4693 -2352206.7928 1706954.8111 9560404.4962 
17835571.81 23159886.299 26608318.004 29255836.967 31193591.084 32512728.251 33349090.726 33838520.771 34033393.371 
33986083.516 33712697.92 33229343.299 32518838.989 31564004.325 30298416.05 28655650.902 26564236.703 23952701.272 
20370901.15 15368692.873 9952059.8631 5126985.5385 1092870.6731 -1950883.9596 -11332279.08 3464251.9449 3482046.3236 
-2133343.65 -4236365.6818 -3947730.6855 -2388149.5749 1733037.8503 9706491.7902 18108107.394 23513779.811 27014905.109 
29702879.356 31670243.23 33009537.408 33858679.88 34355588.636 34553438.978 34505406.207 34227843.156 33737102.658 
33015741.521 32046316.553 30761389.518 29093522.177 26970150.225 24318709.355 20682177.711 15603533.435 10104131.828 
5205328.191 1109570.2302 -1980694.3467 -11493859.937 3513646.8452 3531694.9444 -2163761.8468 -4296769.7356 -4004019.2485 
-2422200.9118 1757748.3026 9844891.4226 18366301.133 23849050.118 27400096.073 30126396.696 32121812.151 33480202.602 
34341452.538 34845446.448 35046117.831 34997400.187 34715879.514 34218141.812 33486495.175 32503247.7 31199999.583 
29508351.021 27354703.054 24665456.718 20977073.73 15826015.804 10248201.195 5279548.1587 1125390.9938 -2008935.9993 
-11645467.558 3559992.9506 3578279.1101 -2192302.5441 -4353445.4767 -4056833.5188 -2454150.5017 1780933.5549 9974748.6315 
18608558.411 24163626.576 27761511.943 30523773.327 32545508.937 33921816.985 34794427.078 35305068.826 35508387.128 
35459026.883 35173792.864 34669489.845 33928192.56 32931975.741 31611537.372 29897575.435 27715520.175 24990801.836 
21253767.918 16034765.921 10383378.186 5349187.0563 1140235.2542 -2035434.4959 -11786124.268 3602991.387 3621498.4111 
-2218781.6924 -4406027.4201 -4105832.913 -2483792.3116 1802444.0913 10095226.003 18833316.978 24455480.57 28096822.046 
30892446.676 32938601.287 34331532.709 35214682.393 35731491.793 35937265.821 35887309.391 35598630.248 35088236.138 
34337985.289 33329735.929 31993348.993 30258685.419 28050274.779 25292646.648 21510475.951 16228437.614 10508791.083 
5413795.802 1154007.2852 -2060018.9549 -11914886.577 3642353.7321 3661062.9436 -2243021.6759 -4454162.8594 -4150688.7553 
-2510927.5115 1822135.6248 10205515.407 19039069.211 24722654.416 28403777.209 31229943.777 33298452.437 34706601.505 
35599399.517 36121855.012 36329877.102 36279374.903 35987541.967 35471571.849 34713124.579 33693860.189 32342873.35 
30589258.738 28356721.418 25568966.456 21745475.896 16405731.783 10623598.646 5472941.0168 1166614.7073 -2082524.47 
-12030859.536 3677806.4017 3696697.7183 -2264854.0164 -4497517.2331 -4191089.2787 -2535367.5 1839871.2917 10304850.285 
19224385.048 24963291.148 28680243.968 31533918.888 33622561.275 35044416.492 35945904.509 36473445.299 36683492.162 
36632498.401 36337824.924 35816832.637 35051003.058 34021817.708 32657681.106 30886997.773 28632730.161 25817840.724 
21957134.409 16565416.161 10727002.917 5526211.6171 1177969.8937 -2102794.6188 -12133211.144 3709095.0557 3728147.0888 
-2284122.0869 -4535779.5136 -4226744.647 -2556936.9432 1855523.8548 10392518.003 19387935.02 25175664.42 28924238.929 
31802191.268 33908602.619 35342554.159 36251711.516 36783740.318 36995574.138 36944146.553 36646966.163 36121541.574 
35349196.76 34311255.695 32935513.806 31149766.521 28876320.902 26037484.011 22143933.034 16706345.159 10818262.066 
5573225.4357 1187991.3816 -2120683.9816 -12221186.436 3735988.9025 3755179.0777 -2300683.7626 -4568667.4707 -4257391.8591 
-2575476.7404 1868977.8573 10467871.906 19528512.747 25358207.723 29133962.335 32032782.085 34154466.569 35598815.382 
36514564.843 37050451.27 37263821.052 37212020.576 36912685.396 36383451.067 35605506.147 34560039.196 33174322.1 
31375626.747 29085696.865 26226276.181 22304493.908 16827479.258 10896702.947 5613635.689 1196605.2504 -2136060.6029 
-12294120.811 3758284.7749 3777589.4746 -2314413.9296 -4595932.6553 -4282799.3933 -2590846.8345 1880131.6623 10530342.738 
19645056.249 25509542.049 29307829.85 32223949.362 34358295.769 35811264.259 36732478.788 37271563.313 37486206.456 
37434096.842 37132975.271 36600582.543 35817994.954 34766288.798 33372301.931 31562872.21 29259276.339 26382791.022 
22437604.087 16927903.36 10961732.985 5647137.1015 1203746.4274 -2148808.3214 -12351452.197 3775810.8495 3795205.573 
-2325206.7762 -4617364.9477 -4302771.446 -2602928.7755 1888899.3128 10579449.068 19736667.38 25628501.139 29444501.561 
32374219.863 34518519.406 35978263.549 36903773.993 37445372.44 37661016.533 37608663.915 37306138.118 36771262.674 
35985025.631 34928415.035 33527927.566 31710059.899 29395721.629 26505822.348 22542237.755 17006843.545 11012851.024 
5673471.4939 1209359.879 -2158828.8965 -12392731.655 3788429.8857 3807889.4278 -2332977.7875 -4632796.5194 -4317151.6231 
-2611627.954 1895212.1526 10614806.361 19802628.767 25714153.466 29542907.241 32482416.876 34633882.824 36098505.539 
37027109.107 37570517.616 37786882.407 37734354.822 37430817.962 36894154.926 36105290.221 35045148.355 33639980.354 
31816037.241 29493964.283 26594406.747 22617575.563 17063681.662 11049656.778 5692432.6509 1213401.6483 -2166043.8607 
-12417632.036 3796041.8756 3815540.5173 -2337665.3768 -4642105.0724 -4325825.9593 -2616875.4275 1899020.1512 10636134.405 
19842417.655 25765820.22 29602267.007 32547682.919 34703471.75 36171037.292 37101506.678 37646007.043 37862806.569 
37810173.443 37506026.694 36968285.355 36177835.606 35115563.626 33707572.258 31879964.345 29553225.709 26647842.171 
22663020.447 17097967.256 11071858.555 5703870.3022 1215839.7034 -2170396.0342 -12425954.414 3798586.0077 3818097.7175 
-2339232.0954 -4645216.2415 -4328725.1562 -2618629.2746 1900292.887 10643262.812 19855716.173 25783088.642 29622106.64 
32569496.589 34726730.244 36195279.358 37126372.351 37671237.643 37888182.47 37835514.069 37531163.479 36993061.742 
36202082.228 35139098.306 33730163.294 31901330.506 29573032.474 26665701.729 22678209.352 17109426.426 11079278.987 
5707693.0734 1216654.5672 -2171850.6478 -12417632.036 3796041.8756 3815540.5173 -2337665.3768 -4642105.0724 -4325825.9593 
-2616875.4275 1899020.1512 10636134.405 19842417.655 25765820.22 29602267.007 32547682.919 34703471.75 36171037.292 
37101506.678 37646007.043 37862806.569 37810173.443 37506026.694 36968285.355 36177835.606 35115563.626 33707572.258 
31879964.345 29553225.709 26647842.171 22663020.447 17097967.256 11071858.555 5703870.3022 1215839.7034 -2170396.0342 
-12392731.655 3788429.8857 3807889.4278 -2332977.7875 -4632796.5194 -4317151.6231 -2611627.954 1895212.1526 10614806.361 
19802628.767 25714153.466 29542907.241 32482416.876 34633882.824 36098505.539 37027109.107 37570517.616 37786882.407 
37734354.822 37430817.962 36894154.926 36105290.221 35045148.355 33639980.354 31816037.241 29493964.283 26594406.747 
22617575.563 17063681.662 11049656.778 5692432.6509 1213401.6483 -2166043.8607 -12351452.197 3775810.8495 3795205.573 
-2325206.7762 -4617364.9477 -4302771.446 -2602928.7755 1888899.3128 10579449.068 19736667.38 25628501.139 29444501.561 
32374219.863 34518519.406 35978263.549 36903773.993 37445372.44 37661016.533 37608663.915 37306138.118 36771262.674 
35985025.631 34928415.035 33527927.566 31710059.899 29395721.629 26505822.348 22542237.755 17006843.545 11012851.024 
5673471.4939 1209359.879 -2158828.8965 -12294120.811 3758284.7749 3777589.4746 -2314413.9296 -4595932.6553 -4282799.3933 
-2590846.8345 1880131.6623 10530342.738 19645056.249 25509542.049 29307829.85 32223949.362 34358295.769 35811264.259 
36732478.788 37271563.313 37486206.456 37434096.842 37132975.271 36600582.543 35817994.954 34766288.798 33372301.931 
31562872.21 29259276.339 26382791.022 22437604.087 16927903.36 10961732.985 5647137.1015 1203746.4274 -2148808.3214 
-12221186.436 3735988.9025 3755179.0777 -2300683.7626 -4568667.4707 -4257391.8591 -2575476.7404 1868977.8573 10467871.906 
19528512.747 25358207.723 29133962.335 32032782.085 34154466.569 35598815.382 36514564.843 37050451.27 37263821.052 
37212020.576 36912685.396 36383451.067 35605506.147 34560039.196 33174322.1 31375626.747 29085696.865 26226276.181 
22304493.908 16827479.258 10896702.947 5613635.689 1196605.2504 -2136060.6029 -12133211.144 3709095.0557 3728147.0888 
-2284122.0869 -4535779.5136 -4226744.647 -2556936.9432 1855523.8548 10392518.003 19387935.02 25175664.42 28924238.929 
31802191.268 33908602.619 35342554.159 36251711.516 36783740.318 36995574.138 36944146.552 36646966.163 36121541.574 
35349196.76 34311255.695 32935513.806 31149766.521 28876320.902 26037484.011 22143933.034 16706345.159 10818262.066 
5573225.4357 1187991.3816 -2120683.9816 -12030859.536 3677806.4017 3696697.7183 -2264854.0164 -4497517.2331 -4191089.2787 
-2535367.5 1839871.2917 10304850.285 19224385.048 24963291.148 28680243.968 31533918.888 33622561.275 35044416.492 
35945904.509 36473445.299 36683492.162 36632498.401 36337824.924 35816832.637 35051003.058 34021817.708 32657681.106 
30886997.773 28632730.161 25817840.724 21957134.409 16565416.161 10727002.917 5526211.6171 1177969.8937 -2102794.6188 
-11914886.577 3642353.7321 3661062.9436 -2243021.6759 -4454162.8594 -4150688.7553 -2510927.5115 1822135.6248 10205515.407 
19039069.211 24722654.416 28403777.209 31229943.777 33298452.437 34706601.505 35599399.517 36121855.012 36329877.102 
36279374.903 35987541.967 35471571.849 34713124.579 33693860.189 32342873.35 30589258.738 28356721.418 25568966.456 
21745475.896 16405731.783 10623598.646 5472941.0168 1166614.7073 -2082524.47 -11786124.268 3602991.387 3621498.4111 
-2218781.6924 -4406027.4201 -4105832.913 -2483792.3116 1802444.0913 10095226.003 18833316.978 24455480.57 28096822.046 
30892446.676 32938601.287 34331532.709 35214682.393 35731491.793 35937265.821 35887309.391 35598630.248 35088236.138 
34337985.289 33329735.929 31993348.993 30258685.419 28050274.779 25292646.648 21510475.951 16228437.614 10508791.083 
5413795.802 1154007.2852 -2060018.9549 -11645467.558 3559992.9506 3578279.1101 -2192302.5441 -4353445.4767 -4056833.5188 
-2454150.5017 1780933.5549 9974748.6315 18608558.411 24163626.576 27761511.943 30523773.327 32545508.937 33921816.985 
34794427.078 35305068.826 35508387.128 35459026.883 35173792.864 34669489.845 33928192.56 32931975.741 31611537.372 
29897575.435 27715520.175 24990801.836 21253767.918 16034765.921 10383378.186 5349187.0563 1140235.2542 -2035434.4959 
-11493859.937 3513646.8452 3531694.9444 -2163761.8468 -4296769.7356 -4004019.2485 -2422200.9118 1757748.3026 9844891.4226 
18366301.133 23849050.117 27400096.073 30126396.696 32121812.151 33480202.602 34341452.538 34845446.448 35046117.831 
34997400.187 34715879.514 34218141.812 33486495.175 32503247.7 31199999.583 29508351.021 27354703.054 24665456.718 
20977073.73 15826015.804 10248201.195 5279548.1587 1125390.9938 -2008935.9993 -11332279.08 3464251.9449 3482046.3236 
-2133343.65 -4236365.6817 -3947730.6855 -2388149.5749 1733037.8503 9706491.7902 18108107.394 23513779.811 27014905.109 
29702879.356 31670243.23 33009537.408 33858679.88 34355588.636 34553438.978 34505406.207 34227843.156 33737102.658 
33015741.521 32046316.553 30761389.518 29093522.177 26970150.225 24318709.355 20682177.711 15603533.435 10104131.828 
5205328.191 1109570.2302 -1980694.3467 -11161722.918 3412113.3149 3429639.8802 -2101235.817 -4172606.3721 -3888315.4693 
-2352206.7928 1706954.8111 9560404.4962 17835571.81 23159886.299 26608318.004 29255836.967 31193591.084 32512728.251 
33349090.726 33838520.771 34033393.371 33986083.516 33712697.92 33229343.299 32518838.989 31564004.325 30298416.05 
28655650.902 26564236.703 23952701.272 20370901.15 15368692.873 9952059.8631 5126985.5385 1092870.6731 -1950883.9596 
-10983196.43 3357538.1736 3374784.4098 -2067627.5424 -4105867.5035 -3826123.6994 -2314584.3557 1679652.8751 9407490.3409 
17550300.261 22789454.853 26182730.522 28787903.67 30694664.324 31992702.515 32815687.768 33297289.609 33489045.315 
33442492.158 33173479.236 32697855.644 31998715.514 31059152.981 29813807.192 28197317.297 26139354.28 23569589.126 
20045078.205 15122877.888 9792881.3649 5044981.8258 1075390.7227 -1919680.4919 -10797699.431 3300832.1607 3317787.1217 
-2032707.0455 -4036522.8387 -3761503.673 -2275492.9635 1651284.9425 9248605.6981 17253890.37 22404560.024 25740526.106 
28301700.058 30176257.12 31452372.531 32261458.252 32734926.241 32923443.353 32877676.441 32613206.921 32145616.214 
31458283.976 30534589.868 29310276.928 27721088.195 25697882.452 23171518.482 19706533.602 14867465.131 9627487.7906 
4959776.3031 1057228.2732 -1887258.6942 -10606215.52 3242295.9685 3258950.255 -1996659.4836 -3964940.0706 -3694798.0323 
-2235139.8951 1622001.4372 9084593.0608 16947913.863 22007242.731 25284049.56 27799804.245 29641118.345 30894603.421 
31689341.002 32154412.619 32339586.612 32294631.319 32034851.842 31575553.279 30900410.033 29993096.503 28790495.246 
27229488.819 25242162.139 22760600.124 19357062.485 14603808.937 9456756.145 4871820.7749 1038479.6306 -1853790.4844 

P2 1 1089 double
-235592069.7 -161990927.98 -111062699.76 -75236347.838 -46940834.998 -25921692.801 -11924452.804 -4523346.9722 -3292607.2716 
-4566490.8225 -4679254.7451 -4280180.3812 -4018549.0727 -3800369.6313 -3531650.8685 -3236442.6963 -2938795.0268 -2639406.434 
-2338975.492 -2040119.0396 -1745453.9153 -1456036.1571 -1172921.8028 -895511.7579 -623206.92793 -374179.84035 -166603.02263 
125509.21914 628142.57886 503573.95085 -1085919.7706 -7188429.8691 -20852047.629 -239845433.23 -164915501.4 -113067818.34 
-76594659.849 -47788301.705 -26389681.316 -12139736.081 -4605011.1792 -3352051.786 -4648933.945 -4763733.6997 -4357454.4737 
-4091099.6909 -3868981.2522 -3595411.0587 -3294873.2178 -2991851.8371 -2687058.1025 -2381203.2003 -2076951.2132 -1776966.2243 
-1482323.3371 -1194097.655 -911679.26747 -634458.26408 -380935.25788 -169610.86193 127775.15497 639483.02406 512665.44237 
-1105524.893 -7318209.3026 -21228509.107 -243965811.71 -167748635.53 -115010245.18 -77910503.072 -48609271.64 -26843037.768 
-12348288.341 -4684122.0811 -3409637.7131 -4728799.4101 -4845571.3453 -4432312.5236 -4161381.9502 -3935447.6707 -3657177.7308 
-3351476.858 -3043249.7798 -2733219.9 -2422110.6224 -2112631.797 -1807493.2737 -1507788.6257 -1214611.426 -927341.28622 
-645357.818 -387479.46214 -172524.65944 129970.24328 650468.8992 521472.67929 -1124517.0455 -7443931.0715 -21593200.195 
-247931356.69 -170475307.58 -116879680.48 -79176900.204 -49399391.583 -27279358.222 -12549003.73 -4760260.1952 -3465059.707 
-4805663.7323 -4924333.7382 -4504357.5965 -4229023.179 -3999416.4483 -3716623.3666 -3405953.4755 -3092716.3169 -2777647.053 
-2461480.8461 -2146971.5937 -1836873.193 -1532296.9925 -1234354.3408 -942414.76533 -655847.79372 -393777.7513 -175328.9634 
132082.84603 661041.95308 529948.96269 -1142795.5202 -7564928.5312 -21944187.106 -251719859.68 -173080247.2 -118665654.73 
-80386758.964 -50154236.576 -27696199.125 -12740758.17 -4832999.1199 -3518007.3837 -4879096.4432 -4999579.7802 -4573186.2134 
-4293644.5618 -4060529.3365 -3773415.0488 -3457997.9816 -3139974.4178 -2820090.7533 -2499093.3841 -2179778.2884 -1864941.4441 
-1555711.1818 -1253215.8319 -956815.28803 -665869.44377 -399794.85282 -178008.06885 134101.13175 671142.97265 538046.82219 
-1160257.9512 -7680524.0524 -22279504.186 -255308997.42 -175548105.11 -120357644.31 -81532950.412 -50869358.79 -28091104.293 
-12922421.77 -4901910.2481 -3568168.7539 -4948664.8484 -5070866.0923 -4638392.8095 -4354865.3242 -4118426.2347 -3827218.1392 
-3507303.7101 -3184745.6198 -2860300.9066 -2534726.6091 -2210858.5716 -1891532.6385 -1577893.2287 -1271084.7607 -970458.00127 
-675363.71711 -405495.31204 -180546.18992 136013.20747 680712.43838 545718.54169 -1176801.4437 -7790036.5032 -22597175.622 
-258676603.25 -177863639.73 -121945199.43 -82608395.624 -51540341.602 -28461634.777 -13092872.57 -4966567.9828 -3615234.0196 
-5013939.291 -5137752.4077 -4699574.6667 -4412307.3649 -4172749.5695 -3877700.3479 -3553566.1471 -3226753.4143 -2898029.1735 
-2568160.4488 -2240020.4902 -1916482.5479 -1598706.1358 -1287850.7678 -983258.64705 -684271.97665 -410843.92261 -182927.65096 
137807.26426 689691.24903 552916.74046 -1192323.8243 -7892789.5304 -22895239.463 -261800960.41 -180011918.81 -123418082.37 
-83606159.353 -52162858.031 -28805401.13 -13251011.38 -5026555.3648 -3658899.6706 -5074498.8349 -5199807.3957 -4756337.2404 
-4465600.2562 -4223149.0252 -3924536.1293 -3596486.959 -3265726.9048 -2933032.2549 -2599179.2978 -2267075.9872 -1939630.2771 
-1618015.6864 -1303405.7338 -995134.67742 -692536.77534 -415806.19263 -185137.09437 139471.73297 698021.50295 559594.99954 
-1206724.9933 -7988120.508 -23171773.577 -264661111.51 -181978532.25 -124766413.42 -84519548.855 -52732732.395 -29120097.454 
-13395777.445 -5081470.014 -3698872.8088 -5129937.262 -5256614.8072 -4808299.7817 -4514386.523 -4269286.5349 -3967411.3209 
-3635778.244 -3301404.667 -2965075.3591 -2627575.0894 -2291843.5812 -1960820.5572 -1635692.357 -1317645.32 -1006006.431 
-700102.67505 -420348.8365 -187159.69984 140995.44871 705647.32289 565708.52283 -1219908.3513 -8075389.9802 -23424923.044 
-267237177.33 -183749811.28 -125980821.13 -85342215.698 -53246003.834 -29403536.48 -13526164.581 -5130930.2508 -3734875.6041 
-5179869.2523 -5307779.8071 -4855101.1295 -4558327.0807 -4310841.4239 -4006027.9225 -3671166.9114 -3333538.7258 -2993935.7732 
-2653150.4614 -2314151.1271 -1979906.107 -1651613.2875 -1330470.5554 -1015798.3448 -706917.08976 -424440.28108 -188981.4095 
142367.82093 712515.70616 571214.81872 -1231782.2689 -8153991.3886 -23652928.373 -269510676.98 -185313048.61 -127052593.23 
-86068258.007 -53698990.099 -29653684.796 -13641237.381 -5174581.2436 -3766649.7698 -5223936.5899 -5352935.3338 -4896405.5273 
-4597106.6962 -4347515.5744 -4040108.8956 -3702399.0804 -3361898.549 -3019406.4506 -2675721.9341 -2333838.5891 -1996750.0053 
-1665664.26 -1341789.4309 -1024440.1708 -712931.13232 -428051.17401 -190589.15426 143579.00415 718577.37848 576074.38465 
-1242261.5614 -8223360.8407 -23854153.834 -271464840.66 -186656713.49 -127973824.13 -86692320.348 -54088349.873 -29868697.257 
-13740147.046 -5212101.014 -3793960.9333 -5261814.2253 -5391748.3112 -4931908.3058 -4630439.3235 -4379038.4704 -4069402.8522 
-3729244.3761 -3386274.949 -3041299.5143 -2695123.0157 -2350760.7484 -2011228.0081 -1677741.6317 -1351518.4562 -1031868.1651 
-718100.44191 -431154.88058 -191971.07504 144620.06448 723787.62778 580251.37553 -1251268.9316 -8282986.6532 -24027115.149 
-273084905.82 -187770655.31 -128737554.47 -87209688.297 -54411141.772 -30046949.57 -13822146.37 -5243206.1223 -3816602.775 
-5293216.0153 -5423925.5301 -4961341.2622 -4658073.1542 -4405171.975 -4093688.4937 -3751499.9981 -3406483.7762 -3059449.5752 
-2711207.1424 -2364789.7681 -2023230.7427 -1687754.165 -1359584.1341 -1038026.2136 -722385.96745 -433727.95412 -193116.73224 
145483.13732 728107.09368 583714.23665 -1258736.3339 -8332418.3883 -24170505.697 -274358387.4 -188646289.46 -129337898.54 
-87616374.749 -54664878.192 -30187068.031 -13886603.425 -5267656.8563 -3834400.8049 -5317899.9613 -5449219.0161 -4984477.5709 
-4679795.2275 -4425714.6898 -4112778.6622 -3768994.4331 -3422369.2911 -3073716.7594 -2723850.3617 -2375817.5332 -2032665.7097 
-1695624.6983 -1365924.3063 -1042866.8593 -725754.68245 -435750.56521 -194017.29684 146161.57136 731502.48811 586436.28137 
-1264606.2209 -8371275.0994 -24283220.435 -275275313.21 -189276759.17 -129770155.26 -87909195.087 -54847572.217 -30287955.422 
-13933013.47 -5285261.7512 -3847215.653 -5335672.7722 -5467430.7049 -5001136.0598 -4695435.4457 -4440505.7523 -4126523.8696 
-3781590.6884 -3433807.0998 -3083989.3459 -2732953.669 -2383757.6893 -2039459.0273 -1701291.6001 -1370489.3254 -1046352.1966 
-728180.20772 -437206.8755 -194665.71685 146650.05403 733947.22297 588396.19435 -1268832.6275 -8399252.5136 -24364376.735 
-275828416.47 -189657067.85 -130030898.93 -88085828.659 -54957775.963 -30348812.193 -13961008.698 -5295881.2849 -3854945.7596 
-5346393.5955 -5478416.2658 -5011184.7075 -4704869.8574 -4449427.9406 -4134815.1826 -3789188.9365 -3440706.5557 -3090185.9224 
-2738444.919 -2388547.3093 -2043556.8572 -1704709.9594 -1373243.0126 -1048454.6039 -729643.32056 -438085.34347 -195056.85342 
146944.71402 735421.92331 589578.44294 -1271382.0586 -8416128.905 -24413331.42 -276013278.48 -189784177.26 -130118046.49 
-88144864.358 -54994609.024 -30369152.166 -13970365.458 -5299430.6192 -3857529.3694 -5349976.7835 -5482087.9363 -5014543.2363 
-4708023.0919 -4452409.9764 -4137586.3628 -3791728.4757 -3443012.5397 -3092256.9852 -2740280.2427 -2390148.1294 -2044926.4624 
-1705852.4672 -1374163.369 -1049157.285 -730132.33229 -438378.95113 -195187.5818 147043.19733 735914.8079 589973.58227 
-1272234.1472 -8421769.4496 -24429693.394 -275828416.47 -189657067.85 -130030898.93 -88085828.659 -54957775.963 -30348812.193 
-13961008.698 -5295881.2849 -3854945.7596 -5346393.5955 -5478416.2658 -5011184.7075 -4704869.8574 -4449427.9406 -4134815.1826 
-3789188.9365 -3440706.5557 -3090185.9224 -2738444.919 -2388547.3093 -2043556.8572 -1704709.9594 -1373243.0126 -1048454.6039 
-729643.32056 -438085.34347 -195056.85342 146944.71402 735421.92331 589578.44294 -1271382.0586 -8416128.905 -24413331.42 
-275275313.21 -189276759.17 -129770155.26 -87909195.087 -54847572.217 -30287955.422 -13933013.47 -5285261.7512 -3847215.653 
-5335672.7722 -5467430.7049 -5001136.0598 -4695435.4457 -4440505.7523 -4126523.8696 -3781590.6884 -3433807.0998 -3083989.3459 
-2732953.669 -2383757.6893 -2039459.0273 -1701291.6001 -1370489.3254 -1046352.1966 -728180.20772 -437206.8755 -194665.71685 
146650.05403 733947.22297 588396.19435 -1268832.6275 -8399252.5136 -24364376.735 -274358387.4 -188646289.46 -129337898.54 
-87616374.749 -54664878.192 -30187068.031 -13886603.425 -5267656.8563 -3834400.8049 -5317899.9613 -5449219.0161 -4984477.5709 
-4679795.2275 -4425714.6898 -4112778.6622 -3768994.4331 -3422369.2911 -3073716.7594 -2723850.3617 -2375817.5332 -2032665.7097 
-1695624.6983 -1365924.3063 -1042866.8593 -725754.68245 -435750.56521 -194017.29684 146161.57136 731502.48811 586436.28137 
-1264606.2209 -8371275.0994 -24283220.435 -273084905.82 -187770655.31 -128737554.47 -87209688.297 -54411141.772 -30046949.57 
-13822146.37 -5243206.1223 -3816602.775 -5293216.0153 -5423925.5301 -4961341.2622 -4658073.1542 -4405171.975 -4093688.4937 
-3751499.9981 -3406483.7762 -3059449.5752 -2711207.1424 -2364789.7681 -2023230.7427 -1687754.165 -1359584.1341 -1038026.2136 
-722385.96744 -433727.95412 -193116.73224 145483.13732 728107.09367 583714.23665 -1258736.3339 -8332418.3883 -24170505.697 
-271464840.66 -186656713.49 -127973824.13 -86692320.348 -54088349.873 -29868697.257 -13740147.046 -5212101.014 -3793960.9333 
-5261814.2253 -5391748.3112 -4931908.3058 -4630439.3235 -4379038.4704 -4069402.8522 -3729244.3761 -3386274.949 -3041299.5143 
-2695123.0157 -2350760.7484 -2011228.0081 -1677741.6317 -1351518.4562 -1031868.1651 -718100.44191 -431154.88058 -191971.07504 
144620.06448 723787.62777 580251.37553 -1251268.9316 -8282986.6532 -24027115.149 -269510676.98 -185313048.61 -127052593.23 
-86068258.007 -53698990.099 -29653684.796 -13641237.381 -5174581.2436 -3766649.7698 -5223936.5899 -5352935.3338 -4896405.5273 
-4597106.6962 -4347515.5744 -4040108.8956 -3702399.0804 -3361898.549 -3019406.4506 -2675721.9341 -2333838.5891 -1996750.0053 
-1665664.2601 -1341789.4309 -1024440.1708 -712931.13232 -428051.17401 -190589.15427 143579.00415 718577.37848 576074.38465 
-1242261.5614 -8223360.8407 -23854153.834 -267237177.33 -183749811.28 -125980821.13 -85342215.698 -53246003.834 -29403536.48 
-13526164.581 -5130930.2508 -3734875.6041 -5179869.2523 -5307779.8071 -4855101.1295 -4558327.0807 -4310841.4239 -4006027.9225 
-3671166.9114 -3333538.7258 -2993935.7732 -2653150.4614 -2314151.1271 -1979906.107 -1651613.2875 -1330470.5554 -1015798.3448 
-706917.08976 -424440.28108 -188981.4095 142367.82093 712515.70616 571214.81872 -1231782.2689 -8153991.3886 -23652928.373 
-264661111.51 -181978532.25 -124766413.42 -84519548.855 -52732732.395 -29120097.454 -13395777.445 -5081470.014 -3698872.8088 
-5129937.262 -5256614.8072 -4808299.7817 -4514386.523 -4269286.5349 -3967411.3209 -3635778.244 -3301404.667 -2965075.3591 
-2627575.0894 -2291843.5812 -1960820.5572 -1635692.357 -1317645.32 -1006006.431 -700102.67505 -420348.8365 -187159.69983 
140995.44871 705647.32289 565708.52283 -1219908.3513 -8075389.9802 -23424923.044 -261800960.41 -180011918.81 -123418082.37 
-83606159.353 -52162858.031 -28805401.13 -13251011.38 -5026555.3648 -3658899.6706 -5074498.8349 -5199807.3957 -4756337.2404 
-4465600.2562 -4223149.0252 -3924536.1293 -3596486.959 -3265726.9048 -2933032.2549 -2599179.2978 -2267075.9872 -1939630.2771 
-1618015.6864 -1303405.7338 -995134.67742 -692536.77533 -415806.19263 -185137.09437 139471.73297 698021.50295 559594.99954 
-1206724.9933 -7988120.508 -23171773.577 -258676603.25 -177863639.73 -121945199.43 -82608395.624 -51540341.602 -28461634.777 
-13092872.57 -4966567.9828 -3615234.0196 -5013939.291 -5137752.4077 -4699574.6667 -4412307.3649 -4172749.5695 -3877700.3479 
-3553566.1471 -3226753.4143 -2898029.1735 -2568160.4488 -2240020.4902 -1916482.5479 -1598706.1358 -1287850.7678 -983258.64706 
-684271.97665 -410843.92261 -182927.65096 137807.26426 689691.24902 552916.74046 -1192323.8243 -7892789.5304 -22895239.463 
-255308997.42 -175548105.11 -120357644.31 -81532950.412 -50869358.79 -28091104.293 -12922421.77 -4901910.2481 -3568168.7539 
-4948664.8484 -5070866.0923 -4638392.8095 -4354865.3242 -4118426.2347 -3827218.1392 -3507303.7101 -3184745.6198 -2860300.9066 
-2534726.6091 -2210858.5716 -1891532.6385 -1577893.2287 -1271084.7607 -970458.00127 -675363.71711 -405495.31204 -180546.18993 
136013.20747 680712.43838 545718.54169 -1176801.4437 -7790036.5032 -22597175.622 -251719859.68 -173080247.2 -118665654.73 
-80386758.964 -50154236.576 -27696199.125 -12740758.17 -4832999.1199 -3518007.3837 -4879096.4432 -4999579.7802 -4573186.2134 
-4293644.5618 -4060529.3365 -3773415.0488 -3457997.9816 -3139974.4178 -2820090.7533 -2499093.3841 -2179778.2884 -1864941.4441 
-1555711.1818 -1253215.8319 -956815.28803 -665869.44377 -399794.85282 -178008.06885 134101.13176 671142.97265 538046.82219 
-1160257.9512 -7680524.0524 -22279504.186 -247931356.69 -170475307.58 -116879680.48 -79176900.204 -49399391.583 -27279358.222 
-12549003.73 -4760260.1952 -3465059.707 -4805663.7323 -4924333.7382 -4504357.5965 -4229023.179 -3999416.4483 -3716623.3666 
-3405953.4755 -3092716.3169 -2777647.053 -2461480.8461 -2146971.5937 -1836873.193 -1532296.9925 -1234354.3408 -942414.76533 
-655847.79373 -393777.7513 -175328.9634 132082.84603 661041.95308 529948.96269 -1142795.5202 -7564928.5312 -21944187.106 
-243965811.71 -167748635.53 -115010245.18 -77910503.072 -48609271.64 -26843037.768 -12348288.341 -4684122.0811 -3409637.7131 
-4728799.4101 -4845571.3453 -4432312.5236 -4161381.9502 -3935447.6707 -3657177.7308 -3351476.858 -3043249.7798 -2733219.9 
-2422110.6224 -2112631.797 -1807493.2737 -1507788.6257 -1214611.426 -927341.28623 -645357.818 -387479.46214 -172524.65944 
129970.24327 650468.89919 521472.67929 -1124517.0455 -7443931.0715 -21593200.195 -239845433.23 -164915501.4 -113067818.34 
-76594659.849 -47788301.705 -26389681.316 -12139736.081 -4605011.1792 -3352051.786 -4648933.945 -4763733.6997 -4357454.4737 
-4091099.6909 -3868981.2522 -3595411.0587 -3294873.2178 -2991851.8371 -2687058.1025 -2381203.2003 -2076951.2132 -1776966.2243 
-1482323.3371 -1194097.655 -911679.26747 -634458.26408 -380935.25787 -169610.86193 127775.15498 639483.02405 512665.44237 
-1105524.893 -7318209.3026 -21228509.107 -235592069.7 -161990927.98 -111062699.76 -75236347.838 -46940834.998 -25921692.801 
-11924452.804 -4523346.9722 -3292607.2716 -4566490.8225 -4679254.7451 -4280180.3812 -4018549.0727 -3800369.6313 -3531650.8685 
-3236442.6963 -2938795.0268 -2639406.434 -2338975.492 -2040119.0396 -1745453.9153 -1456036.1571 -1172921.8028 -895511.7579 
-623206.92794 -374179.84036 -166603.02263 125509.21914 628142.57886 503573.95085 -1085919.7705 -7188429.8691 -20852047.629 

displacement 3 1089 double
4.4621460946e-06 0 0 4.9069964864e-06 0 0 5.2345812522e-06 0 0 
5.4710729687e-06 0 0 5.6426442127e-06 0 0 5.7633051201e-06 0 0 
5.8470658266e-06 0 0 5.9021308809e-06 0 0 5.9367048318e-06 0 0 
5.9553774041e-06 0 0 5.9627383228e-06 0 0 5.961421809e-06 0 0 
5.9540620837e-06 0 0 5.9421650448e-06 0 0 5.9272365901e-06 0 0 
5.9101653763e-06 0 0 5.8918400601e-06 0 0 5.8728242847e-06 0 0 
5.8536816935e-06 0 0 5.8348401719e-06 0 0 5.8167276055e-06 0 0 
5.7997769169e-06 0 0 5.7844210287e-06 0 0 5.7712408449e-06 0 0 
5.7608172697e-06 0 0 5.7540551242e-06 0 0 5.7518592295e-06 0 0 
5.7557682305e-06 0 0 5.7673207717e-06 0 0 5.7890711363e-06 0 0 
5.8235736072e-06 0 0 5.8755002148e-06 0 0 5.9495229895e-06 0 0 
4.5380631512e-06 2.0478201648e-07 0 4.9904820384e-06 2.2519760985e-07 0 5.3236401921e-06 2.4023151226e-07 0 
5.5641554782e-06 2.5108486614e-07 0 5.7386457624e-06 2.5895881392e-07 0 5.8613595431e-06 2.644963251e-07 0 
5.9465453187e-06 2.6834036921e-07 0 6.0025472264e-06 2.7086747895e-07 0 6.0377094038e-06 2.7245418706e-07 0 
6.0566996633e-06 2.7331113054e-07 0 6.0641858176e-06 2.7364894641e-07 0 6.0628469052e-06 2.7358852743e-07 0 
6.0553619646e-06 2.7325076632e-07 0 6.0432625146e-06 2.7270477353e-07 0 6.0280800735e-06 2.7201965946e-07 0 
6.0107184173e-06 2.7123620739e-07 0 5.9920813219e-06 2.7039520059e-07 0 5.9727420202e-06 2.6952250644e-07 0 
5.9532737451e-06 2.686439923e-07 0 5.9341116619e-06 2.677792952e-07 0 5.915690936e-06 2.6694805216e-07 0 
5.8984518556e-06 2.6617013138e-07 0 5.8828347088e-06 2.6546540103e-07 0 5.8694302829e-06 2.6486052065e-07 0 
5.8588293655e-06 2.6438214977e-07 0 5.8519521717e-06 2.640718135e-07 0 5.849718917e-06 2.6397103694e-07 0 
5.853694424e-06 2.6415043337e-07 0 5.8654435153e-06 2.6468061608e-07 0 5.8875639314e-06 2.656788092e-07 0 
5.9226534127e-06 2.6726223686e-07 0 5.9754634775e-06 2.6964531334e-07 0 6.0507456442e-06 2.7304245291e-07 0 
4.6016761736e-06 4.1904300021e-07 0 5.0604369146e-06 4.6081918567e-07 0 5.3982651657e-06 4.9158288103e-07 0 
5.6421519131e-06 5.1379196973e-07 0 5.8190881427e-06 5.2990433524e-07 0 5.9435220833e-06 5.412356784e-07 0 
6.0299019641e-06 5.4910170004e-07 0 6.0866888875e-06 5.542728946e-07 0 6.1223439563e-06 5.5751975648e-07 0 
6.1416004148e-06 5.5927330972e-07 0 6.1491915074e-06 5.5996457832e-07 0 6.1478338266e-06 5.5984094366e-07 0 
6.1402439647e-06 5.5914978714e-07 0 6.1279749086e-06 5.5803252859e-07 0 6.1125796453e-06 5.5663058784e-07 0 
6.0949746193e-06 5.5502741921e-07 0 6.0760762755e-06 5.5330647701e-07 0 6.0564658821e-06 5.5152069336e-07 0 
6.0367247073e-06 5.4972300034e-07 0 6.0172940165e-06 5.4795358097e-07 0 5.9986150752e-06 5.4625261825e-07 0 
5.9811343432e-06 5.4466076822e-07 0 5.9652982806e-06 5.4321868691e-07 0 5.951705956e-06 5.419809274e-07 0 
5.9409564385e-06 5.4100204277e-07 0 5.9339828426e-06 5.4036700535e-07 0 5.931718283e-06 5.4016078748e-07 0 
5.9357495173e-06 5.4052788426e-07 0 5.9476633033e-06 5.4161279082e-07 0 5.9700937958e-06 5.436553815e-07 0 
6.0056751495e-06 5.4689553066e-07 0 6.0592254878e-06 5.5177199167e-07 0 6.1355629343e-06 5.5872351789e-07 0 
4.6518114262e-06 6.4161502621e-07 0 5.1155703646e-06 7.0558036705e-07 0 5.4570792538e-06 7.5268400364e-07 0 
5.7036231468e-06 7.8668930864e-07 0 5.8824870962e-06 8.1135965468e-07 0 6.0082767445e-06 8.2870956873e-07 0 
6.0955977338e-06 8.4075357777e-07 0 6.1530033506e-06 8.4867141944e-07 0 6.1890468813e-06 8.5364283138e-07 0 
6.2085131389e-06 8.5632777328e-07 0 6.2161869365e-06 8.5738620479e-07 0 6.2148144637e-06 8.5719690237e-07 0 
6.2071419103e-06 8.5613864246e-07 0 6.1947391829e-06 8.5442795913e-07 0 6.1791761882e-06 8.5228138646e-07 0 
6.1613793555e-06 8.49826705e-07 0 6.1422751143e-06 8.471916953e-07 0 6.1224510657e-06 8.4445740401e-07 0 
6.1024948108e-06 8.4170487778e-07 0 6.0828524227e-06 8.3899564256e-07 0 6.0639699744e-06 8.363912243e-07 0 
6.0462987898e-06 8.3395387324e-07 0 6.0302901933e-06 8.3174583961e-07 0 6.0165497804e-06 8.29850652e-07 0 
6.0056831469e-06 8.2835183902e-07 0 5.9986335737e-06 8.2737950552e-07 0 5.9963443417e-06 8.2706375633e-07 0 
6.0004194963e-06 8.2762583424e-07 0 6.012463083e-06 8.2928698201e-07 0 6.0351379557e-06 8.3241448175e-07 0 
6.0711069681e-06 8.3737561555e-07 0 6.1252407373e-06 8.4484217783e-07 0 6.20240988e-06 8.5548596301e-07 0 
4.6872228202e-06 8.7185159175e-07 0 5.1545120716e-06 9.5877019862e-07 0 5.4986206591e-06 1.0227764623e-06 0 
5.7470413398e-06 1.0689842007e-06 0 5.9272668711e-06 1.1025072318e-06 0 6.0540140789e-06 1.1260829736e-06 0 
6.1419997895e-06 1.1424488441e-06 0 6.1998424002e-06 1.153207917e-06 0 6.2361603082e-06 1.159963266e-06 0 
6.2557747505e-06 1.1636116701e-06 0 6.263506964e-06 1.1650499082e-06 0 6.2621240434e-06 1.1647926767e-06 0 
6.2543930836e-06 1.1633546717e-06 0 6.2418959418e-06 1.1610301283e-06 0 6.2262144755e-06 1.1581132814e-06 0 
6.2082821664e-06 1.1547777642e-06 0 6.1890324963e-06 1.15119721e-06 0 6.1690575394e-06 1.1474817481e-06 0 
6.1489493697e-06 1.1437415078e-06 0 6.1291574562e-06 1.140060093e-06 0 6.1101312673e-06 1.1365211076e-06 0 
6.0923255628e-06 1.1332091396e-06 0 6.0761951027e-06 1.1302087772e-06 0 6.0623500924e-06 1.1276335221e-06 0 
6.0514007379e-06 1.1255968764e-06 0 6.0442975006e-06 1.1242756317e-06 0 6.041990842e-06 1.1238465793e-06 0 
6.0460970183e-06 1.1246103527e-06 0 6.0582322855e-06 1.1268675853e-06 0 6.0810797681e-06 1.1311173543e-06 0 
6.1173225906e-06 1.1378587369e-06 0 6.171868447e-06 1.1480045938e-06 0 6.2496250313e-06 1.1624677854e-06 0 
4.7066957805e-06 1.1090525484e-06 0 5.1759263744e-06 1.2196187311e-06 0 5.5214645532e-06 1.3010389069e-06 0 
5.770917292e-06 1.3598181883e-06 0 5.9518915661e-06 1.4024616879e-06 0 6.0791653423e-06 1.4324515816e-06 0 
6.1675165875e-06 1.4532700449e-06 0 6.225599504e-06 1.4669562931e-06 0 6.262068294e-06 1.4755495412e-06 0 
6.281764224e-06 1.480190551e-06 0 6.2895285608e-06 1.4820200845e-06 0 6.2881398949e-06 1.4816928691e-06 0 
6.280376817e-06 1.4798636322e-06 0 6.2678277561e-06 1.4769066602e-06 0 6.2520811415e-06 1.4731962391e-06 0 
6.2340743331e-06 1.468953242e-06 0 6.2147446906e-06 1.4643985416e-06 0 6.1946867482e-06 1.4596722297e-06 0 
6.1744950396e-06 1.4549143981e-06 0 6.154620901e-06 1.4502313964e-06 0 6.1355156682e-06 1.4457295743e-06 0 
6.1176359904e-06 1.4415165334e-06 0 6.1014385166e-06 1.437699875e-06 0 6.0875359876e-06 1.4344239813e-06 0 
6.0765411442e-06 1.4318332341e-06 0 6.0694083967e-06 1.4301525238e-06 0 6.0670921552e-06 1.429606741e-06 0 
6.0712153904e-06 1.4305783111e-06 0 6.0834010733e-06 1.4334496593e-06 0 6.1063434752e-06 1.4388556448e-06 0 
6.1427368678e-06 1.4474311268e-06 0 6.1975093337e-06 1.4603373238e-06 0 6.2755889559e-06 1.4787354544e-06 0 
4.7091653958e-06 1.3519249937e-06 0 5.1786421962e-06 1.4867041674e-06 0 5.5243616797e-06 1.5859546229e-06 0 
5.773945307e-06 1.6576060336e-06 0 5.9550145387e-06 1.7095880727e-06 0 6.0823550958e-06 1.746145481e-06 0 
6.1707526992e-06 1.7715229989e-06 0 6.2288660919e-06 1.7882064112e-06 0 6.2653540171e-06 1.7986815027e-06 0 
6.2850602817e-06 1.8043388516e-06 0 6.2928286924e-06 1.8065690363e-06 0 6.2914392979e-06 1.8061701636e-06 0 
6.2836721467e-06 1.8039403405e-06 0 6.2711165013e-06 1.8003358184e-06 0 6.2553616244e-06 1.7958128488e-06 0 
6.2373453678e-06 1.7906406738e-06 0 6.218005583e-06 1.7850885353e-06 0 6.1979371161e-06 1.779327204e-06 0 
6.1777348129e-06 1.7735274505e-06 0 6.1578502463e-06 1.767818914e-06 0 6.1387349889e-06 1.7623312337e-06 0 
6.1208459296e-06 1.7571955749e-06 0 6.1046399569e-06 1.7525431031e-06 0 6.0907301332e-06 1.7485498183e-06 0 
6.0797295208e-06 1.745391721e-06 0 6.0725930307e-06 1.7433429504e-06 0 6.0702755739e-06 1.7426776461e-06 0 
6.0744009726e-06 1.7438619812e-06 0 6.0865930493e-06 1.7473621287e-06 0 6.1095474892e-06 1.753951976e-06 0 
6.1459599775e-06 1.7644054107e-06 0 6.2007611826e-06 1.7801379477e-06 0 6.2788817734e-06 1.8025651021e-06 0 
4.6936895941e-06 1.598920669e-06 0 5.1616235457e-06 1.7583238958e-06 0 5.5062068861e-06 1.8757073346e-06 0 
5.7549703029e-06 1.9604494039e-06 0 5.9354444841e-06 2.0219285223e-06 0 6.06236656e-06 2.0651649415e-06 0 
6.150473661e-06 2.0951789128e-06 0 6.2083960748e-06 2.1149103719e-06 0 6.2447640892e-06 2.1272992547e-06 0 
6.2644055927e-06 2.1339901969e-06 0 6.2721484741e-06 2.1366278347e-06 0 6.2707636455e-06 2.1361560883e-06 0 
6.2630220196e-06 2.1335188782e-06 0 6.250507636e-06 2.1292558126e-06 0 6.2348045346e-06 2.1239064999e-06 0 
6.2168474851e-06 2.1177893724e-06 0 6.1975712569e-06 2.1112228624e-06 0 6.1775687413e-06 2.1044089403e-06 0 
6.1574328293e-06 2.0975495761e-06 0 6.1376136096e-06 2.0907980943e-06 0 6.118561171e-06 2.084307819e-06 0 
6.1007309008e-06 2.0782338793e-06 0 6.084578186e-06 2.0727314043e-06 0 6.0707140744e-06 2.0680085495e-06 0 
6.0597496135e-06 2.0642734701e-06 0 6.0526365761e-06 2.0618503907e-06 0 6.0503267352e-06 2.0610635359e-06 0 
6.0544385766e-06 2.062464248e-06 0 6.0665905863e-06 2.0666038698e-06 0 6.0894695906e-06 2.0743976772e-06 0 
6.1257624159e-06 2.0867609465e-06 0 6.1803835271e-06 2.1053678062e-06 0 6.258247389e-06 2.1318923847e-06 0 
4.659524235e-06 1.8483243142e-06 0 5.1240520961e-06 2.032591655e-06 0 5.4661272149e-06 2.1682848562e-06 0 
5.7130798832e-06 2.2662452054e-06 0 5.8922403931e-06 2.3373139905e-06 0 6.0182386034e-06 2.3872945344e-06 0 
6.1057043729e-06 2.4219901601e-06 0 6.1632051696e-06 2.4447993816e-06 0 6.1993084613e-06 2.4591207132e-06 0 
6.2188069944e-06 2.4668553254e-06 0 6.2264935153e-06 2.4699043885e-06 0 6.2251187669e-06 2.469359058e-06 0 
6.2174334922e-06 2.4663104892e-06 0 6.2050102008e-06 2.46138246e-06 0 6.1894214023e-06 2.4551987481e-06 0 
6.1715950621e-06 2.4481274558e-06 0 6.1524591456e-06 2.4405366852e-06 0 6.1326022282e-06 2.4326599103e-06 0 
6.1126128855e-06 2.4247306055e-06 0 6.0929379298e-06 2.4169260106e-06 0 6.074024174e-06 2.4094233659e-06 0 
6.0563236902e-06 2.4024019979e-06 0 6.0402885511e-06 2.3960412331e-06 0 6.0265253563e-06 2.3905816955e-06 0 
6.0156407057e-06 2.3862640091e-06 0 6.0085794441e-06 2.3834629718e-06 0 6.0062864165e-06 2.3825533813e-06 0 
6.0103683278e-06 2.3841725801e-06 0 6.022431883e-06 2.3889579104e-06 0 6.0451443511e-06 2.3979674154e-06 0 
6.081173001e-06 2.4122591384e-06 0 6.1353965252e-06 2.4337683426e-06 0 6.2126936161e-06 2.4644302912e-06 0 
4.6060947789e-06 2.0983003211e-06 0 5.0652960295e-06 2.3074888372e-06 0 5.403448669e-06 2.4615338202e-06 0 
5.6475696004e-06 2.5727427843e-06 0 5.824675727e-06 2.6534232436e-06 0 5.9492291512e-06 2.7101633895e-06 0 
6.0356919753e-06 2.7495514135e-06 0 6.0925334265e-06 2.7754454606e-06 0 6.1282227319e-06 2.791703676e-06 0 
6.1474976808e-06 2.8004843532e-06 0 6.1550960625e-06 2.8039457858e-06 0 6.153737078e-06 2.8033267022e-06 0 
6.1461399282e-06 2.7998658308e-06 0 6.1338590912e-06 2.7942713119e-06 0 6.118449045e-06 2.787251286e-06 0 
6.1008271144e-06 2.7792236391e-06 0 6.0819106241e-06 2.7706062572e-06 0 6.0622814005e-06 2.7616641906e-06 0 
6.0425212699e-06 2.7526624895e-06 0 6.0230719215e-06 2.7438023648e-06 0 6.0043750443e-06 2.7352850274e-06 0 
5.986877527e-06 2.7273140568e-06 0 5.9710262583e-06 2.7200930325e-06 0 5.9574208822e-06 2.7138951216e-06 0 
5.9466610428e-06 2.7089934912e-06 0 5.9396807508e-06 2.7058136284e-06 0 5.9374140166e-06 2.7047810207e-06 0 
5.9414491218e-06 2.7066192075e-06 0 5.9533743476e-06 2.7120517282e-06 0 5.9758263783e-06 2.7222797207e-06 0 
6.0114418978e-06 2.7385043231e-06 0 6.065043656e-06 2.7629225324e-06 0 6.1414544029e-06 2.797731346e-06 0 
4.5330812993e-06 2.3469017606e-06 0 4.9850035244e-06 2.5808744154e-06 0 5.3177959396e-06 2.7531702674e-06 0 
5.5580471898e-06 2.8775549949e-06 0 5.7323459199e-06 2.9677942758e-06 0 5.8549249863e-06 3.0312568541e-06 0 
5.9400172456e-06 3.0753114738e-06 0 5.9959576749e-06 3.1042733837e-06 0 6.0310812515e-06 3.1224578323e-06 0 
6.0500506636e-06 3.1322788224e-06 0 6.0575285996e-06 3.1361503571e-06 0 6.0561911571e-06 3.135457926e-06 0 
6.0487144335e-06 3.1315870191e-06 0 6.0366282661e-06 3.1253296754e-06 0 6.0214624921e-06 3.1174779341e-06 0 
6.0041198955e-06 3.1084991914e-06 0 5.9855032598e-06 3.0988608434e-06 0 5.9661851886e-06 3.0888593428e-06 0 
5.9467382856e-06 3.0787911424e-06 0 5.9275972384e-06 3.0688812921e-06 0 5.9091967346e-06 3.0593548416e-06 0 
5.8919765792e-06 3.0504394901e-06 0 5.8763765767e-06 3.0423629366e-06 0 5.8629868662e-06 3.0354307126e-06 0 
5.8523975863e-06 3.0299483491e-06 0 5.8455279423e-06 3.0263917441e-06 0 5.8432971393e-06 3.0252367955e-06 0 
5.847268282e-06 3.0272927661e-06 0 5.8590044752e-06 3.0333689185e-06 0 5.8811006076e-06 3.0448086983e-06 0 
5.916151568e-06 3.0629555514e-06 0 5.9689036583e-06 3.0902667699e-06 0 6.0441031808e-06 3.1291996458e-06 0 
4.4403735086e-06 2.5921138137e-06 0 4.8830532983e-06 2.8505327048e-06 0 5.2090396477e-06 3.040830597e-06 0 
5.4443774271e-06 3.1782114519e-06 0 5.6151115068e-06 3.2778792311e-06 0 5.7351836615e-06 3.3479725894e-06 0 
5.8185356662e-06 3.3966301814e-06 0 5.8733320363e-06 3.4286181273e-06 0 5.9077372871e-06 3.4487025472e-06 0 
5.9263187485e-06 3.4595496669e-06 0 5.9336437504e-06 3.4638257122e-06 0 5.9323336603e-06 3.4630609337e-06 0 
5.9250098461e-06 3.4587855816e-06 0 5.9131708576e-06 3.45187445e-06 0 5.8983152447e-06 3.4432023328e-06 0 
5.8813273282e-06 3.4332854614e-06 0 5.8630914284e-06 3.4226400669e-06 0 5.8441684386e-06 3.4115935765e-06 0 
5.8251192517e-06 3.4004734173e-06 0 5.8063696654e-06 3.389528153e-06 0 5.7883454774e-06 3.3790063475e-06 0 
5.771477498e-06 3.3691594905e-06 0 5.7561965372e-06 3.3602390722e-06 0 5.7430806648e-06 3.3525825464e-06 0 
5.7327079503e-06 3.3465273674e-06 0 5.7259788001e-06 3.3425991566e-06 0 5.72379362e-06 3.3413235352e-06 0 
5.7276835474e-06 3.3435943204e-06 0 5.7391797192e-06 3.3503053292e-06 0 5.7608239551e-06 3.3629403751e-06 0 
5.7951580748e-06 3.3829832714e-06 0 5.8468313118e-06 3.4131480562e-06 0 5.9204928999e-06 3.4561487677e-06 0 
4.3281529842e-06 2.8318871003e-06 0 4.7596450308e-06 3.1142100139e-06 0 5.0773928032e-06 3.3221106636e-06 0 
5.3067829457e-06 3.4721993939e-06 0 5.4732021028e-06 3.5810865487e-06 0 5.590239702e-06 3.6576636172e-06 0 
5.6714851709e-06 3.7108220883e-06 0 5.7248966851e-06 3.7457689533e-06 0 5.75843242e-06 3.7677112033e-06 0 
5.7765442765e-06 3.7795616931e-06 0 5.7836841553e-06 3.7842332772e-06 0 5.7824071749e-06 3.7833977558e-06 0 
5.7752684536e-06 3.7787269291e-06 0 5.7637286691e-06 3.7711765105e-06 0 5.7492484987e-06 3.7617022133e-06 0 
5.7326899138e-06 3.7508680207e-06 0 5.7149148857e-06 3.7392379159e-06 0 5.6964701322e-06 3.7271696134e-06 0 
5.677902371e-06 3.7150208276e-06 0 5.6596266386e-06 3.7030631147e-06 0 5.6420579717e-06 3.6915680309e-06 0 
5.6256162928e-06 3.6808103293e-06 0 5.6107215242e-06 3.6710647627e-06 0 5.5979371261e-06 3.6627000002e-06 0 
5.5878265589e-06 3.6560847107e-06 0 5.5812674728e-06 3.6517931361e-06 0 5.5791375184e-06 3.6503995184e-06 0 
5.5829291365e-06 3.6528803537e-06 0 5.5941347682e-06 3.660212138e-06 0 5.6152319944e-06 3.674015939e-06 0 
5.6486983959e-06 3.6959128246e-06 0 5.6990657072e-06 3.7288678841e-06 0 5.7708656632e-06 3.7758462072e-06 0 
4.1968316224e-06 3.0641714334e-06 0 4.6152316818e-06 3.3696517636e-06 0 4.923338605e-06 3.5946053757e-06 0 
5.145768775e-06 3.75700507e-06 0 5.3071385749e-06 3.8748236474e-06 0 5.4206251128e-06 3.9576819173e-06 0 
5.4994054965e-06 4.0152006893e-06 0 5.5511964412e-06 4.053014056e-06 0 5.5837146616e-06 4.0767561098e-06 0 
5.6012769826e-06 4.089578631e-06 0 5.6082002289e-06 4.0946333998e-06 0 5.6069619936e-06 4.0937293451e-06 0 
5.6000398698e-06 4.0886753958e-06 0 5.5888502162e-06 4.0805056573e-06 0 5.5748093915e-06 4.0702542349e-06 0 
5.558753214e-06 4.0585313723e-06 0 5.5415175016e-06 4.0459473131e-06 0 5.5236323841e-06 4.0328891132e-06 0 
5.505627991e-06 4.0197438284e-06 0 5.4879067663e-06 4.0068052892e-06 0 5.4708711539e-06 3.9943673261e-06 0 
5.4549283353e-06 3.9827272286e-06 0 5.4404854918e-06 3.972182286e-06 0 5.4280889878e-06 3.9631314074e-06 0 
5.4182851873e-06 3.9559735016e-06 0 5.4119251118e-06 3.9513299125e-06 0 5.4098597827e-06 3.9498219839e-06 0 
5.4135363586e-06 3.9525063086e-06 0 5.424401998e-06 3.9604394794e-06 0 5.444859109e-06 3.9753755313e-06 0 
5.4773100996e-06 3.9990684996e-06 0 5.5261492062e-06 4.0347266839e-06 0 5.5957706653e-06 4.0855583838e-06 0 
4.0471224516e-06 3.2869716628e-06 0 4.4505973648e-06 3.614663899e-06 0 4.747713513e-06 3.8559742057e-06 0 
4.962209165e-06 4.030182211e-06 0 5.1178225893e-06 4.1565675434e-06 0 5.227260841e-06 4.245450555e-06 0 
5.3032309748e-06 4.3071515982e-06 0 5.3531744354e-06 4.3477144281e-06 0 5.3845326674e-06 4.3731828001e-06 0 
5.4014685062e-06 4.3869376649e-06 0 5.4081447868e-06 4.3923599731e-06 0 5.4069507218e-06 4.3913901833e-06 0 
5.4002755236e-06 4.3859687543e-06 0 5.3894850268e-06 4.3772049825e-06 0 5.3759450657e-06 4.3662081647e-06 0 
5.3604616434e-06 4.3536329162e-06 0 5.3438407625e-06 4.3401338524e-06 0 5.326593642e-06 4.3261261723e-06 0 
5.3092315007e-06 4.3120250753e-06 0 5.2921424267e-06 4.2981457567e-06 0 5.2757145078e-06 4.2848034117e-06 0 
5.2603404006e-06 4.2723169463e-06 0 5.2464127615e-06 4.2610052661e-06 0 5.234458465e-06 4.2512962853e-06 0 
5.2250043852e-06 4.2436179181e-06 0 5.218871186e-06 4.238636687e-06 0 5.2168795312e-06 4.2370191148e-06 0 
5.2204249565e-06 4.2398986206e-06 0 5.2309029973e-06 4.2484086234e-06 0 5.2506303633e-06 4.2644306967e-06 0 
5.2819237638e-06 4.2898464141e-06 0 5.3290206842e-06 4.3280973553e-06 0 5.3961586099e-06 4.3826250999e-06 0 
3.8799644692e-06 3.4983651123e-06 0 4.2667746896e-06 3.8471320638e-06 0 4.5516190728e-06 4.1039616457e-06 0 
4.7572554275e-06 4.2893734079e-06 0 4.9064415628e-06 4.4238869002e-06 0 5.0113596949e-06 4.5184862028e-06 0 
5.0841920402e-06 4.5841553959e-06 0 5.1320726899e-06 4.6273269239e-06 0 5.1621357354e-06 4.6544332312e-06 0 
5.1783720745e-06 4.6690727061e-06 0 5.1847726052e-06 4.6748437366e-06 0 5.1836278586e-06 4.6738115772e-06 0 
5.1772283656e-06 4.6680414824e-06 0 5.1668835478e-06 4.6587140904e-06 0 5.1539028267e-06 4.6470100394e-06 0 
5.1390589149e-06 4.6336260449e-06 0 5.123124525e-06 4.6192588222e-06 0 5.106589761e-06 4.6043502728e-06 0 
5.0899447269e-06 4.5893422987e-06 0 5.0735614815e-06 4.574570366e-06 0 5.0578120837e-06 4.5603699411e-06 0 
5.043072972e-06 4.5470804395e-06 0 5.0297205852e-06 4.5350412766e-06 0 5.018260036e-06 4.5247078868e-06 0 
5.0091964373e-06 4.5165357044e-06 0 5.0033165572e-06 4.5112341178e-06 0 5.0014071636e-06 4.5095125154e-06 0 
5.0048061524e-06 4.5125772094e-06 0 5.0148514196e-06 4.521634512e-06 0 5.0337639876e-06 4.5386870054e-06 0 
5.0637648792e-06 4.5657372718e-06 0 5.1089165592e-06 4.6064482276e-06 0 5.1732814925e-06 4.6644827892e-06 0 
3.6965746562e-06 3.6965746562e-06 0 4.0651019633e-06 4.0651019633e-06 0 4.336482935e-06 4.336482935e-06 0 
4.5323997129e-06 4.5323997129e-06 0 4.6745344389e-06 4.6745344389e-06 0 4.7744935265e-06 4.7744935265e-06 0 
4.8438833892e-06 4.8438833892e-06 0 4.8895009194e-06 4.8895009194e-06 0 4.9181430095e-06 4.9181430095e-06 0 
4.9336119243e-06 4.9336119243e-06 0 4.9397099284e-06 4.9397099284e-06 0 4.9386192892e-06 4.9386192892e-06 0 
4.9325222737e-06 4.9325222737e-06 0 4.9226664125e-06 4.9226664125e-06 0 4.9102992362e-06 4.9102992362e-06 0 
4.8961569345e-06 4.8961569345e-06 0 4.880975697e-06 4.880975697e-06 0 4.8652224627e-06 4.8652224627e-06 0 
4.8493641702e-06 4.8493641702e-06 0 4.8337552929e-06 4.8337552929e-06 0 4.8187503037e-06 4.8187503037e-06 0 
4.8047078487e-06 4.8047078487e-06 0 4.7919865737e-06 4.7919865737e-06 0 4.7810677171e-06 4.7810677171e-06 0 
4.7724325171e-06 4.7724325171e-06 0 4.7668305545e-06 4.7668305545e-06 0 4.76501141e-06 4.76501141e-06 0 
4.7682497427e-06 4.7682497427e-06 0 4.7778202118e-06 4.7778202118e-06 0 4.7958388613e-06 4.7958388613e-06 0 
4.8244217353e-06 4.8244217353e-06 0 4.8674392828e-06 4.8674392828e-06 0 4.9287619529e-06 4.9287619529e-06 0 
3.4983651123e-06 3.8799644692e-06 0 3.8471320638e-06 4.2667746896e-06 0 4.1039616457e-06 4.5516190728e-06 0 
4.2893734079e-06 4.7572554275e-06 0 4.4238869002e-06 4.9064415628e-06 0 4.5184862028e-06 5.0113596949e-06 0 
4.5841553959e-06 5.0841920402e-06 0 4.6273269239e-06 5.1320726899e-06 0 4.6544332312e-06 5.1621357354e-06 0 
4.6690727061e-06 5.1783720745e-06 0 4.6748437366e-06 5.1847726052e-06 0 4.6738115772e-06 5.1836278586e-06 0 
4.6680414824e-06 5.1772283656e-06 0 4.6587140904e-06 5.1668835478e-06 0 4.6470100394e-06 5.1539028267e-06 0 
4.6336260449e-06 5.1390589149e-06 0 4.6192588222e-06 5.123124525e-06 0 4.6043502728e-06 5.106589761e-06 0 
4.5893422987e-06 5.0899447269e-06 0 4.574570366e-06 5.0735614815e-06 0 4.5603699411e-06 5.0578120837e-06 0 
4.5470804395e-06 5.043072972e-06 0 4.5350412766e-06 5.0297205852e-06 0 4.5247078868e-06 5.018260036e-06 0 
4.5165357044e-06 5.0091964373e-06 0 4.5112341178e-06 5.0033165572e-06 0 4.5095125154e-06 5.0014071636e-06 0 
4.5125772094e-06 5.0048061524e-06 0 4.521634512e-06 5.0148514196e-06 0 4.5386870054e-06 5.0337639876e-06 0 
4.5657372718e-06 5.0637648792e-06 0 4.6064482276e-06 5.1089165592e-06 0 4.6644827892e-06 5.1732814925e-06 0 
3.2869716628e-06 4.0471224516e-06 0 3.614663899e-06 4.4505973648e-06 0 3.8559742056e-06 4.747713513e-06 0 
4.030182211e-06 4.962209165e-06 0 4.1565675434e-06 5.1178225893e-06 0 4.245450555e-06 5.227260841e-06 0 
4.3071515982e-06 5.3032309748e-06 0 4.3477144281e-06 5.3531744354e-06 0 4.3731828001e-06 5.3845326675e-06 0 
4.3869376649e-06 5.4014685062e-06 0 4.3923599731e-06 5.4081447868e-06 0 4.3913901833e-06 5.4069507218e-06 0 
4.3859687543e-06 5.4002755236e-06 0 4.3772049825e-06 5.3894850268e-06 0 4.3662081647e-06 5.3759450657e-06 0 
4.3536329162e-06 5.3604616434e-06 0 4.3401338524e-06 5.3438407625e-06 0 4.3261261723e-06 5.326593642e-06 0 
4.3120250753e-06 5.3092315007e-06 0 4.2981457567e-06 5.2921424267e-06 0 4.2848034117e-06 5.2757145078e-06 0 
4.2723169463e-06 5.2603404006e-06 0 4.2610052661e-06 5.2464127616e-06 0 4.2512962853e-06 5.234458465e-06 0 
4.2436179181e-06 5.2250043852e-06 0 4.238636687e-06 5.218871186e-06 0 4.2370191148e-06 5.2168795312e-06 0 
4.2398986206e-06 5.2204249565e-06 0 4.2484086234e-06 5.2309029973e-06 0 4.2644306967e-06 5.2506303633e-06 0 
4.2898464141e-06 5.2819237638e-06 0 4.3280973553e-06 5.3290206842e-06 0 4.3826250999e-06 5.3961586099e-06 0 
3.0641714334e-06 4.1968316224e-06 0 3.3696517636e-06 4.6152316819e-06 0 3.5946053757e-06 4.923338605e-06 0 
3.75700507e-06 5.145768775e-06 0 3.8748236474e-06 5.3071385749e-06 0 3.9576819173e-06 5.4206251128e-06 0 
4.0152006893e-06 5.4994054965e-06 0 4.053014056e-06 5.5511964412e-06 0 4.0767561098e-06 5.5837146616e-06 0 
4.089578631e-06 5.6012769826e-06 0 4.0946333998e-06 5.6082002289e-06 0 4.0937293451e-06 5.6069619936e-06 0 
4.0886753958e-06 5.6000398698e-06 0 4.0805056573e-06 5.5888502162e-06 0 4.0702542349e-06 5.5748093915e-06 0 
4.0585313723e-06 5.558753214e-06 0 4.0459473131e-06 5.5415175016e-06 0 4.0328891132e-06 5.5236323841e-06 0 
4.0197438284e-06 5.505627991e-06 0 4.0068052892e-06 5.4879067663e-06 0 3.9943673261e-06 5.4708711539e-06 0 
3.9827272286e-06 5.4549283353e-06 0 3.972182286e-06 5.4404854918e-06 0 3.9631314074e-06 5.4280889878e-06 0 
3.9559735016e-06 5.4182851873e-06 0 3.9513299125e-06 5.4119251118e-06 0 3.9498219839e-06 5.4098597827e-06 0 
3.9525063086e-06 5.4135363586e-06 0 3.9604394794e-06 5.424401998e-06 0 3.9753755313e-06 5.444859109e-06 0 
3.9990684996e-06 5.4773100996e-06 0 4.0347266839e-06 5.5261492063e-06 0 4.0855583838e-06 5.5957706653e-06 0 
2.8318871003e-06 4.3281529842e-06 0 3.1142100139e-06 4.7596450308e-06 0 3.3221106636e-06 5.0773928032e-06 0 
3.4721993939e-06 5.3067829457e-06 0 3.5810865487e-06 5.4732021028e-06 0 3.6576636172e-06 5.590239702e-06 0 
3.7108220883e-06 5.6714851709e-06 0 3.7457689533e-06 5.7248966851e-06 0 3.7677112033e-06 5.75843242e-06 0 
3.7795616931e-06 5.7765442765e-06 0 3.7842332772e-06 5.7836841553e-06 0 3.7833977558e-06 5.7824071749e-06 0 
3.7787269291e-06 5.7752684536e-06 0 3.7711765105e-06 5.7637286691e-06 0 3.7617022133e-06 5.7492484987e-06 0 
3.7508680207e-06 5.7326899138e-06 0 3.7392379159e-06 5.7149148857e-06 0 3.7271696134e-06 5.6964701322e-06 0 
3.7150208276e-06 5.677902371e-06 0 3.7030631147e-06 5.6596266386e-06 0 3.6915680309e-06 5.6420579717e-06 0 
3.6808103293e-06 5.6256162928e-06 0 3.6710647627e-06 5.6107215242e-06 0 3.6627000002e-06 5.5979371261e-06 0 
3.6560847107e-06 5.5878265589e-06 0 3.6517931361e-06 5.5812674728e-06 0 3.6503995184e-06 5.5791375184e-06 0 
3.6528803537e-06 5.5829291365e-06 0 3.660212138e-06 5.5941347683e-06 0 3.674015939e-06 5.6152319944e-06 0 
3.6959128246e-06 5.6486983959e-06 0 3.7288678841e-06 5.6990657073e-06 0 3.7758462072e-06 5.7708656632e-06 0 
2.5921138137e-06 4.4403735086e-06 0 2.8505327048e-06 4.8830532983e-06 0 3.040830597e-06 5.2090396477e-06 0 
3.1782114519e-06 5.4443774271e-06 0 3.2778792311e-06 5.6151115068e-06 0 3.3479725894e-06 5.7351836615e-06 0 
3.3966301814e-06 5.8185356662e-06 0 3.4286181273e-06 5.8733320363e-06 0 3.4487025472e-06 5.9077372871e-06 0 
3.4595496669e-06 5.9263187485e-06 0 3.4638257122e-06 5.9336437504e-06 0 3.4630609337e-06 5.9323336603e-06 0 
3.4587855816e-06 5.9250098461e-06 0 3.45187445e-06 5.9131708576e-06 0 3.4432023328e-06 5.8983152447e-06 0 
3.4332854614e-06 5.8813273282e-06 0 3.4226400669e-06 5.8630914284e-06 0 3.4115935765e-06 5.8441684386e-06 0 
3.4004734173e-06 5.8251192517e-06 0 3.389528153e-06 5.8063696654e-06 0 3.3790063475e-06 5.7883454774e-06 0 
3.3691594905e-06 5.771477498e-06 0 3.3602390722e-06 5.7561965372e-06 0 3.3525825464e-06 5.7430806648e-06 0 
3.3465273674e-06 5.7327079503e-06 0 3.3425991566e-06 5.7259788001e-06 0 3.3413235352e-06 5.7237936201e-06 0 
3.3435943204e-06 5.7276835474e-06 0 3.3503053292e-06 5.7391797192e-06 0 3.3629403751e-06 5.7608239551e-06 0 
3.3829832714e-06 5.7951580748e-06 0 3.4131480562e-06 5.8468313118e-06 0 3.4561487677e-06 5.9204928999e-06 0 
2.3469017606e-06 4.5330812993e-06 0 2.5808744153e-06 4.9850035244e-06 0 2.7531702674e-06 5.3177959396e-06 0 
2.8775549949e-06 5.5580471898e-06 0 2.9677942758e-06 5.7323459199e-06 0 3.0312568541e-06 5.8549249863e-06 0 
3.0753114738e-06 5.9400172456e-06 0 3.1042733837e-06 5.9959576749e-06 0 3.1224578323e-06 6.0310812515e-06 0 
3.1322788224e-06 6.0500506636e-06 0 3.1361503571e-06 6.0575285996e-06 0 3.135457926e-06 6.0561911571e-06 0 
3.1315870191e-06 6.0487144335e-06 0 3.1253296754e-06 6.0366282661e-06 0 3.1174779341e-06 6.0214624921e-06 0 
3.1084991914e-06 6.0041198955e-06 0 3.0988608434e-06 5.9855032598e-06 0 3.0888593428e-06 5.9661851886e-06 0 
3.0787911424e-06 5.9467382856e-06 0 3.0688812921e-06 5.9275972384e-06 0 3.0593548416e-06 5.9091967347e-06 0 
3.0504394901e-06 5.8919765792e-06 0 3.0423629366e-06 5.8763765767e-06 0 3.0354307126e-06 5.8629868662e-06 0 
3.0299483491e-06 5.8523975863e-06 0 3.0263917441e-06 5.8455279423e-06 0 3.0252367955e-06 5.8432971393e-06 0 
3.0272927661e-06 5.847268282e-06 0 3.0333689185e-06 5.8590044752e-06 0 3.0448086983e-06 5.8811006076e-06 0 
3.0629555514e-06 5.916151568e-06 0 3.0902667699e-06 5.9689036583e-06 0 3.1291996458e-06 6.0441031808e-06 0 
2.0983003211e-06 4.606094779e-06 0 2.3074888372e-06 5.0652960295e-06 0 2.4615338202e-06 5.403448669e-06 0 
2.5727427843e-06 5.6475696004e-06 0 2.6534232436e-06 5.824675727e-06 0 2.7101633895e-06 5.9492291512e-06 0 
2.7495514135e-06 6.0356919753e-06 0 2.7754454606e-06 6.0925334265e-06 0 2.791703676e-06 6.1282227319e-06 0 
2.8004843532e-06 6.1474976808e-06 0 2.8039457858e-06 6.1550960625e-06 0 2.8033267022e-06 6.153737078e-06 0 
2.7998658308e-06 6.1461399282e-06 0 2.7942713119e-06 6.1338590912e-06 0 2.787251286e-06 6.118449045e-06 0 
2.7792236391e-06 6.1008271144e-06 0 2.7706062572e-06 6.0819106241e-06 0 2.7616641906e-06 6.0622814005e-06 0 
2.7526624895e-06 6.0425212699e-06 0 2.7438023648e-06 6.0230719215e-06 0 2.7352850274e-06 6.0043750443e-06 0 
2.7273140568e-06 5.986877527e-06 0 2.7200930325e-06 5.9710262583e-06 0 2.7138951216e-06 5.9574208822e-06 0 
2.7089934912e-06 5.9466610428e-06 0 2.7058136284e-06 5.9396807508e-06 0 2.7047810207e-06 5.9374140166e-06 0 
2.7066192075e-06 5.9414491218e-06 0 2.7120517282e-06 5.9533743477e-06 0 2.7222797207e-06 5.9758263783e-06 0 
2.7385043231e-06 6.0114418978e-06 0 2.7629225324e-06 6.065043656e-06 0 2.797731346e-06 6.1414544029e-06 0 
1.8483243142e-06 4.659524235e-06 0 2.032591655e-06 5.1240520961e-06 0 2.1682848562e-06 5.4661272149e-06 0 
2.2662452054e-06 5.7130798832e-06 0 2.3373139905e-06 5.8922403931e-06 0 2.3872945344e-06 6.0182386034e-06 0 
2.4219901601e-06 6.1057043729e-06 0 2.4447993816e-06 6.1632051696e-06 0 2.4591207132e-06 6.1993084613e-06 0 
2.4668553254e-06 6.2188069944e-06 0 2.4699043885e-06 6.2264935153e-06 0 2.469359058e-06 6.2251187669e-06 0 
2.4663104892e-06 6.2174334922e-06 0 2.46138246e-06 6.2050102008e-06 0 2.4551987481e-06 6.1894214023e-06 0 
2.4481274558e-06 6.1715950621e-06 0 2.4405366852e-06 6.1524591456e-06 0 2.4326599103e-06 6.1326022282e-06 0 
2.4247306055e-06 6.1126128855e-06 0 2.4169260106e-06 6.0929379299e-06 0 2.4094233659e-06 6.074024174e-06 0 
2.4024019979e-06 6.0563236902e-06 0 2.3960412331e-06 6.0402885511e-06 0 2.3905816955e-06 6.0265253563e-06 0 
2.3862640091e-06 6.0156407057e-06 0 2.3834629718e-06 6.0085794441e-06 0 2.3825533813e-06 6.0062864165e-06 0 
2.3841725801e-06 6.0103683278e-06 0 2.3889579104e-06 6.022431883e-06 0 2.3979674154e-06 6.0451443511e-06 0 
2.4122591384e-06 6.081173001e-06 0 2.4337683426e-06 6.1353965252e-06 0 2.4644302912e-06 6.2126936162e-06 0 
1.598920669e-06 4.6936895941e-06 0 1.7583238958e-06 5.1616235457e-06 0 1.8757073346e-06 5.5062068861e-06 0 
1.9604494039e-06 5.7549703029e-06 0 2.0219285223e-06 5.9354444841e-06 0 2.0651649415e-06 6.06236656e-06 0 
2.0951789128e-06 6.150473661e-06 0 2.1149103719e-06 6.2083960748e-06 0 2.1272992547e-06 6.2447640892e-06 0 
2.1339901969e-06 6.2644055927e-06 0 2.1366278347e-06 6.2721484741e-06 0 2.1361560883e-06 6.2707636455e-06 0 
2.1335188782e-06 6.2630220196e-06 0 2.1292558126e-06 6.250507636e-06 0 2.1239064999e-06 6.2348045346e-06 0 
2.1177893724e-06 6.2168474851e-06 0 2.1112228624e-06 6.1975712569e-06 0 2.1044089403e-06 6.1775687413e-06 0 
2.0975495761e-06 6.1574328293e-06 0 2.0907980943e-06 6.1376136096e-06 0 2.084307819e-06 6.118561171e-06 0 
2.0782338793e-06 6.1007309008e-06 0 2.0727314043e-06 6.084578186e-06 0 2.0680085495e-06 6.0707140744e-06 0 
2.0642734701e-06 6.0597496135e-06 0 2.0618503907e-06 6.0526365761e-06 0 2.0610635359e-06 6.0503267352e-06 0 
2.062464248e-06 6.0544385766e-06 0 2.0666038698e-06 6.0665905863e-06 0 2.0743976772e-06 6.0894695906e-06 0 
2.0867609465e-06 6.1257624159e-06 0 2.1053678062e-06 6.1803835271e-06 0 2.1318923847e-06 6.258247389e-06 0 
1.3519249937e-06 4.7091653958e-06 0 1.4867041674e-06 5.1786421962e-06 0 1.5859546229e-06 5.5243616797e-06 0 
1.6576060336e-06 5.773945307e-06 0 1.7095880727e-06 5.9550145387e-06 0 1.746145481e-06 6.0823550958e-06 0 
1.7715229989e-06 6.1707526992e-06 0 1.7882064112e-06 6.2288660919e-06 0 1.7986815027e-06 6.2653540171e-06 0 
1.8043388516e-06 6.2850602817e-06 0 1.8065690363e-06 6.2928286924e-06 0 1.8061701636e-06 6.2914392979e-06 0 
1.8039403405e-06 6.2836721467e-06 0 1.8003358184e-06 6.2711165013e-06 0 1.7958128488e-06 6.2553616244e-06 0 
1.7906406738e-06 6.2373453678e-06 0 1.7850885353e-06 6.218005583e-06 0 1.779327204e-06 6.1979371161e-06 0 
1.7735274505e-06 6.1777348129e-06 0 1.767818914e-06 6.1578502463e-06 0 1.7623312337e-06 6.1387349889e-06 0 
1.7571955749e-06 6.1208459296e-06 0 1.7525431031e-06 6.1046399569e-06 0 1.7485498183e-06 6.0907301332e-06 0 
1.745391721e-06 6.0797295208e-06 0 1.7433429504e-06 6.0725930307e-06 0 1.7426776461e-06 6.0702755739e-06 0 
1.7438619812e-06 6.0744009726e-06 0 1.7473621287e-06 6.0865930493e-06 0 1.753951976e-06 6.1095474892e-06 0 
1.7644054107e-06 6.1459599775e-06 0 1.7801379477e-06 6.2007611826e-06 0 1.8025651021e-06 6.2788817734e-06 0 
1.1090525484e-06 4.7066957805e-06 0 1.2196187311e-06 5.1759263744e-06 0 1.3010389069e-06 5.5214645532e-06 0 
1.3598181883e-06 5.770917292e-06 0 1.4024616879e-06 5.9518915661e-06 0 1.4324515816e-06 6.0791653423e-06 0 
1.4532700449e-06 6.1675165875e-06 0 1.4669562931e-06 6.225599504e-06 0 1.4755495412e-06 6.262068294e-06 0 
1.480190551e-06 6.281764224e-06 0 1.4820200845e-06 6.2895285608e-06 0 1.4816928691e-06 6.2881398949e-06 0 
1.4798636322e-06 6.280376817e-06 0 1.4769066602e-06 6.2678277561e-06 0 1.4731962391e-06 6.2520811415e-06 0 
1.468953242e-06 6.2340743331e-06 0 1.4643985416e-06 6.2147446906e-06 0 1.4596722297e-06 6.1946867482e-06 0 
1.4549143981e-06 6.1744950396e-06 0 1.4502313964e-06 6.154620901e-06 0 1.4457295743e-06 6.1355156682e-06 0 
1.4415165334e-06 6.1176359904e-06 0 1.437699875e-06 6.1014385166e-06 0 1.4344239813e-06 6.0875359876e-06 0 
1.4318332341e-06 6.0765411442e-06 0 1.4301525238e-06 6.0694083967e-06 0 1.429606741e-06 6.0670921552e-06 0 
1.4305783111e-06 6.0712153904e-06 0 1.4334496593e-06 6.0834010733e-06 0 1.4388556448e-06 6.1063434752e-06 0 
1.4474311268e-06 6.1427368678e-06 0 1.4603373238e-06 6.1975093337e-06 0 1.4787354544e-06 6.2755889559e-06 0 
8.7185159175e-07 4.6872228203e-06 0 9.5877019861e-07 5.1545120716e-06 0 1.0227764623e-06 5.4986206591e-06 0 
1.0689842007e-06 5.7470413399e-06 0 1.1025072318e-06 5.9272668711e-06 0 1.1260829736e-06 6.0540140789e-06 0 
1.1424488441e-06 6.1419997895e-06 0 1.153207917e-06 6.1998424002e-06 0 1.159963266e-06 6.2361603082e-06 0 
1.1636116701e-06 6.2557747505e-06 0 1.1650499082e-06 6.263506964e-06 0 1.1647926767e-06 6.2621240434e-06 0 
1.1633546717e-06 6.2543930836e-06 0 1.1610301283e-06 6.2418959418e-06 0 1.1581132814e-06 6.2262144755e-06 0 
1.1547777642e-06 6.2082821665e-06 0 1.15119721e-06 6.1890324963e-06 0 1.1474817481e-06 6.1690575394e-06 0 
1.1437415078e-06 6.1489493698e-06 0 1.140060093e-06 6.1291574562e-06 0 1.1365211076e-06 6.1101312673e-06 0 
1.1332091396e-06 6.0923255629e-06 0 1.1302087772e-06 6.0761951027e-06 0 1.1276335221e-06 6.0623500924e-06 0 
1.1255968764e-06 6.0514007379e-06 0 1.1242756317e-06 6.0442975006e-06 0 1.1238465793e-06 6.041990842e-06 0 
1.1246103527e-06 6.0460970183e-06 0 1.1268675853e-06 6.0582322855e-06 0 1.1311173543e-06 6.0810797681e-06 0 
1.1378587369e-06 6.1173225906e-06 0 1.1480045938e-06 6.171868447e-06 0 1.1624677854e-06 6.2496250313e-06 0 
6.4161502621e-07 4.6518114262e-06 0 7.0558036705e-07 5.1155703646e-06 0 7.5268400364e-07 5.4570792538e-06 0 
7.8668930864e-07 5.7036231468e-06 0 8.1135965468e-07 5.8824870962e-06 0 8.2870956873e-07 6.0082767445e-06 0 
8.4075357777e-07 6.0955977338e-06 0 8.4867141944e-07 6.1530033506e-06 0 8.5364283138e-07 6.1890468813e-06 0 
8.5632777328e-07 6.2085131389e-06 0 8.5738620479e-07 6.2161869365e-06 0 8.5719690237e-07 6.2148144637e-06 0 
8.5613864246e-07 6.2071419103e-06 0 8.5442795913e-07 6.1947391829e-06 0 8.5228138646e-07 6.1791761882e-06 0 
8.49826705e-07 6.1613793555e-06 0 8.471916953e-07 6.1422751143e-06 0 8.4445740401e-07 6.1224510657e-06 0 
8.4170487778e-07 6.1024948108e-06 0 8.3899564256e-07 6.0828524227e-06 0 8.363912243e-07 6.0639699744e-06 0 
8.3395387324e-07 6.0462987898e-06 0 8.3174583961e-07 6.0302901933e-06 0 8.29850652e-07 6.0165497804e-06 0 
8.2835183902e-07 6.0056831469e-06 0 8.2737950552e-07 5.9986335737e-06 0 8.2706375633e-07 5.9963443417e-06 0 
8.2762583424e-07 6.0004194963e-06 0 8.2928698201e-07 6.012463083e-06 0 8.3241448175e-07 6.0351379557e-06 0 
8.3737561555e-07 6.0711069681e-06 0 8.4484217783e-07 6.1252407373e-06 0 8.5548596301e-07 6.20240988e-06 0 
4.1904300021e-07 4.6016761736e-06 0 4.6081918567e-07 5.0604369146e-06 0 4.9158288103e-07 5.3982651657e-06 0 
5.1379196973e-07 5.6421519131e-06 0 5.2990433524e-07 5.8190881427e-06 0 5.412356784e-07 5.9435220833e-06 0 
5.4910170004e-07 6.0299019641e-06 0 5.542728946e-07 6.0866888875e-06 0 5.5751975648e-07 6.1223439563e-06 0 
5.5927330972e-07 6.1416004148e-06 0 5.5996457832e-07 6.1491915074e-06 0 5.5984094366e-07 6.1478338266e-06 0 
5.5914978714e-07 6.1402439647e-06 0 5.5803252859e-07 6.1279749087e-06 0 5.5663058784e-07 6.1125796453e-06 0 
5.5502741921e-07 6.0949746193e-06 0 5.5330647701e-07 6.0760762755e-06 0 5.5152069336e-07 6.0564658821e-06 0 
5.4972300034e-07 6.0367247073e-06 0 5.4795358097e-07 6.0172940165e-06 0 5.4625261825e-07 5.9986150752e-06 0 
5.4466076822e-07 5.9811343432e-06 0 5.4321868691e-07 5.9652982806e-06 0 5.419809274e-07 5.951705956e-06 0 
5.4100204277e-07 5.9409564385e-06 0 5.4036700535e-07 5.9339828426e-06 0 5.4016078748e-07 5.931718283e-06 0 
5.4052788426e-07 5.9357495173e-06 0 5.4161279082e-07 5.9476633033e-06 0 5.436553815e-07 5.9700937958e-06 0 
5.4689553066e-07 6.0056751495e-06 0 5.5177199167e-07 6.0592254878e-06 0 5.5872351789e-07 6.1355629343e-06 0 
2.0478201648e-07 4.5380631512e-06 0 2.2519760985e-07 4.9904820384e-06 0 2.4023151226e-07 5.3236401921e-06 0 
2.5108486614e-07 5.5641554782e-06 0 2.5895881392e-07 5.7386457624e-06 0 2.644963251e-07 5.8613595431e-06 0 
2.6834036921e-07 5.9465453187e-06 0 2.7086747895e-07 6.0025472264e-06 0 2.7245418706e-07 6.0377094038e-06 0 
2.7331113054e-07 6.0566996633e-06 0 2.7364894641e-07 6.0641858176e-06 0 2.7358852743e-07 6.0628469052e-06 0 
2.7325076632e-07 6.0553619646e-06 0 2.7270477353e-07 6.0432625146e-06 0 2.7201965946e-07 6.0280800735e-06 0 
2.7123620739e-07 6.0107184173e-06 0 2.7039520059e-07 5.9920813219e-06 0 2.6952250644e-07 5.9727420203e-06 0 
2.686439923e-07 5.9532737451e-06 0 2.677792952e-07 5.9341116619e-06 0 2.6694805216e-07 5.915690936e-06 0 
2.6617013138e-07 5.8984518556e-06 0 2.6546540103e-07 5.8828347088e-06 0 2.6486052065e-07 5.8694302829e-06 0 
2.6438214977e-07 5.8588293655e-06 0 2.640718135e-07 5.8519521717e-06 0 2.6397103694e-07 5.849718917e-06 0 
2.6415043337e-07 5.8536944241e-06 0 2.6468061608e-07 5.8654435153e-06 0 2.656788092e-07 5.8875639314e-06 0 
2.6726223686e-07 5.9226534127e-06 0 2.6964531334e-07 5.9754634775e-06 0 2.7304245291e-07 6.0507456442e-06 0 
0 4.4621460946e-06 0 0 4.9069964864e-06 0 0 5.2345812522e-06 0 
0 5.4710729687e-06 0 0 5.6426442127e-06 0 0 5.7633051201e-06 0 
0 5.8470658266e-06 0 0 5.9021308809e-06 0 0 5.9367048318e-06 0 
0 5.9553774041e-06 0 0 5.9627383228e-06 0 0 5.961421809e-06 0 
0 5.9540620837e-06 0 0 5.9421650448e-06 0 0 5.9272365901e-06 0 
0 5.9101653763e-06 0 0 5.8918400601e-06 0 0 5.8728242847e-06 0 
0 5.8536816935e-06 0 0 5.8348401719e-06 0 0 5.8167276055e-06 0 
0 5.7997769169e-06 0 0 5.7844210287e-06 0 0 5.7712408449e-06 0 
0 5.7608172697e-06 0 0 5.7540551242e-06 0 0 5.7518592295e-06 0 
0 5.7557682305e-06 0 0 5.7673207717e-06 0 0 5.7890711363e-06 0 
0 5.8235736072e-06 0 0 5.8755002148e-06 0 0 5.9495229895e-06 0 

displacement_x 1 1089 double
4.4621460946e-06 4.9069964864e-06 5.2345812522e-06 5.4710729687e-06 5.6426442127e-06 5.7633051201e-06 5.8470658266e-06 5.9021308809e-06 5.9367048318e-06 
5.9553774041e-06 5.9627383228e-06 5.961421809e-06 5.9540620837e-06 5.9421650448e-06 5.9272365901e-06 5.9101653763e-06 5.8918400601e-06 5.8728242847e-06 
5.8536816935e-06 5.8348401719e-06 5.8167276055e-06 5.7997769169e-06 5.7844210287e-06 5.7712408449e-06 5.7608172697e-06 5.7540551242e-06 5.7518592295e-06 
5.7557682305e-06 5.7673207717e-06 5.7890711363e-06 5.8235736072e-06 5.8755002148e-06 5.9495229895e-06 4.5380631512e-06 4.9904820384e-06 5.3236401921e-06 
5.5641554782e-06 5.7386457624e-06 5.8613595431e-06 5.9465453187e-06 6.0025472264e-06 6.0377094038e-06 6.0566996633e-06 6.0641858176e-06 6.0628469052e-06 
6.0553619646e-06 6.0432625146e-06 6.0280800735e-06 6.0107184173e-06 5.9920813219e-06 5.9727420202e-06 5.9532737451e-06 5.9341116619e-06 5.915690936e-06 
5.8984518556e-06 5.8828347088e-06 5.8694302829e-06 5.8588293655e-06 5.8519521717e-06 5.849718917e-06 5.853694424e-06 5.8654435153e-06 5.8875639314e-06 
5.9226534127e-06 5.9754634775e-06 6.0507456442e-06 4.6016761736e-06 5.0604369146e-06 5.3982651657e-06 5.6421519131e-06 5.8190881427e-06 5.9435220833e-06 
6.0299019641e-06 6.0866888875e-06 6.1223439563e-06 6.1416004148e-06 6.1491915074e-06 6.1478338266e-06 6.1402439647e-06 6.1279749086e-06 6.1125796453e-06 
6.0949746193e-06 6.0760762755e-06 6.0564658821e-06 6.0367247073e-06 6.0172940165e-06 5.9986150752e-06 5.9811343432e-06 5.9652982806e-06 5.951705956e-06 
5.9409564385e-06 5.9339828426e-06 5.931718283e-06 5.9357495173e-06 5.9476633033e-06 5.9700937958e-06 6.0056751495e-06 6.0592254878e-06 6.1355629343e-06 
4.6518114262e-06 5.1155703646e-06 5.4570792538e-06 5.7036231468e-06 5.8824870962e-06 6.0082767445e-06 6.0955977338e-06 6.1530033506e-06 6.1890468813e-06 
6.2085131389e-06 6.2161869365e-06 6.2148144637e-06 6.2071419103e-06 6.1947391829e-06 6.1791761882e-06 6.1613793555e-06 6.1422751143e-06 6.1224510657e-06 
6.1024948108e-06 6.0828524227e-06 6.0639699744e-06 6.0462987898e-06 6.0302901933e-06 6.0165497804e-06 6.0056831469e-06 5.9986335737e-06 5.9963443417e-06 
6.0004194963e-06 6.012463083e-06 6.0351379557e-06 6.0711069681e-06 6.1252407373e-06 6.20240988e-06 4.6872228202e-06 5.1545120716e-06 5.4986206591e-06 
5.7470413398e-06 5.9272668711e-06 6.0540140789e-06 6.1419997895e-06 6.1998424002e-06 6.2361603082e-06 6.2557747505e-06 6.263506964e-06 6.2621240434e-06 
6.2543930836e-06 6.2418959418e-06 6.2262144755e-06 6.2082821664e-06 6.1890324963e-06 6.1690575394e-06 6.1489493697e-06 6.1291574562e-06 6.1101312673e-06 
6.0923255628e-06 6.0761951027e-06 6.0623500924e-06 6.0514007379e-06 6.0442975006e-06 6.041990842e-06 6.0460970183e-06 6.0582322855e-06 6.0810797681e-06 
6.1173225906e-06 6.171868447e-06 6.2496250313e-06 4.7066957805e-06 5.1759263744e-06 5.5214645532e-06 5.770917292e-06 5.9518915661e-06 6.0791653423e-06 
6.1675165875e-06 6.225599504e-06 6.262068294e-06 6.281764224e-06 6.2895285608e-06 6.2881398949e-06 6.280376817e-06 6.2678277561e-06 6.2520811415e-06 
6.2340743331e-06 6.2147446906e-06 6.1946867482e-06 6.1744950396e-06 6.154620901e-06 6.1355156682e-06 6.1176359904e-06 6.1014385166e-06 6.0875359876e-06 
6.0765411442e-06 6.0694083967e-06 6.0670921552e-06 6.0712153904e-06 6.0834010733e-06 6.1063434752e-06 6.1427368678e-06 6.1975093337e-06 6.2755889559e-06 
4.7091653958e-06 5.1786421962e-06 5.5243616797e-06 5.773945307e-06 5.9550145387e-06 6.0823550958e-06 6.1707526992e-06 6.2288660919e-06 6.2653540171e-06 
6.2850602817e-06 6.2928286924e-06 6.2914392979e-06 6.2836721467e-06 6.2711165013e-06 6.2553616244e-06 6.2373453678e-06 6.218005583e-06 6.1979371161e-06 
6.1777348129e-06 6.1578502463e-06 6.1387349889e-06 6.1208459296e-06 6.1046399569e-06 6.0907301332e-06 6.0797295208e-06 6.0725930307e-06 6.0702755739e-06 
6.0744009726e-06 6.0865930493e-06 6.1095474892e-06 6.1459599775e-06 6.2007611826e-06 6.2788817734e-06 4.6936895941e-06 5.1616235457e-06 5.5062068861e-06 
5.7549703029e-06 5.9354444841e-06 6.06236656e-06 6.150473661e-06 6.2083960748e-06 6.2447640892e-06 6.2644055927e-06 6.2721484741e-06 6.2707636455e-06 
6.2630220196e-06 6.250507636e-06 6.2348045346e-06 6.2168474851e-06 6.1975712569e-06 6.1775687413e-06 6.1574328293e-06 6.1376136096e-06 6.118561171e-06 
6.1007309008e-06 6.084578186e-06 6.0707140744e-06 6.0597496135e-06 6.0526365761e-06 6.0503267352e-06 6.0544385766e-06 6.0665905863e-06 6.0894695906e-06 
6.1257624159e-06 6.1803835271e-06 6.258247389e-06 4.659524235e-06 5.1240520961e-06 5.4661272149e-06 5.7130798832e-06 5.8922403931e-06 6.0182386034e-06 
6.1057043729e-06 6.1632051696e-06 6.1993084613e-06 6.2188069944e-06 6.2264935153e-06 6.2251187669e-06 6.2174334922e-06 6.2050102008e-06 6.1894214023e-06 
6.1715950621e-06 6.1524591456e-06 6.1326022282e-06 6.1126128855e-06 6.0929379298e-06 6.074024174e-06 6.0563236902e-06 6.0402885511e-06 6.0265253563e-06 
6.0156407057e-06 6.0085794441e-06 6.0062864165e-06 6.0103683278e-06 6.022431883e-06 6.0451443511e-06 6.081173001e-06 6.1353965252e-06 6.2126936161e-06 
4.6060947789e-06 5.0652960295e-06 5.403448669e-06 5.6475696004e-06 5.824675727e-06 5.9492291512e-06 6.0356919753e-06 6.0925334265e-06 6.1282227319e-06 
6.1474976808e-06 6.1550960625e-06 6.153737078e-06 6.1461399282e-06 6.1338590912e-06 6.118449045e-06 6.1008271144e-06 6.0819106241e-06 6.0622814005e-06 
6.0425212699e-06 6.0230719215e-06 6.0043750443e-06 5.986877527e-06 5.9710262583e-06 5.9574208822e-06 5.9466610428e-06 5.9396807508e-06 5.9374140166e-06 
5.9414491218e-06 5.9533743476e-06 5.9758263783e-06 6.0114418978e-06 6.065043656e-06 6.1414544029e-06 4.5330812993e-06 4.9850035244e-06 5.3177959396e-06 
5.5580471898e-06 5.7323459199e-06 5.8549249863e-06 5.9400172456e-06 5.9959576749e-06 6.0310812515e-06 6.0500506636e-06 6.0575285996e-06 6.0561911571e-06 
6.0487144335e-06 6.0366282661e-06 6.0214624921e-06 6.0041198955e-06 5.9855032598e-06 5.9661851886e-06 5.9467382856e-06 5.9275972384e-06 5.9091967346e-06 
5.8919765792e-06 5.8763765767e-06 5.8629868662e-06 5.8523975863e-06 5.8455279423e-06 5.8432971393e-06 5.847268282e-06 5.8590044752e-06 5.8811006076e-06 
5.916151568e-06 5.9689036583e-06 6.0441031808e-06 4.4403735086e-06 4.8830532983e-06 5.2090396477e-06 5.4443774271e-06 5.6151115068e-06 5.7351836615e-06 
5.8185356662e-06 5.8733320363e-06 5.9077372871e-06 5.9263187485e-06 5.9336437504e-06 5.9323336603e-06 5.9250098461e-06 5.9131708576e-06 5.8983152447e-06 
5.8813273282e-06 5.8630914284e-06 5.8441684386e-06 5.8251192517e-06 5.8063696654e-06 5.7883454774e-06 5.771477498e-06 5.7561965372e-06 5.7430806648e-06 
5.7327079503e-06 5.7259788001e-06 5.72379362e-06 5.7276835474e-06 5.7391797192e-06 5.7608239551e-06 5.7951580748e-06 5.8468313118e-06 5.9204928999e-06 
4.3281529842e-06 4.7596450308e-06 5.0773928032e-06 5.3067829457e-06 5.4732021028e-06 5.590239702e-06 5.6714851709e-06 5.7248966851e-06 5.75843242e-06 
5.7765442765e-06 5.7836841553e-06 5.7824071749e-06 5.7752684536e-06 5.7637286691e-06 5.7492484987e-06 5.7326899138e-06 5.7149148857e-06 5.6964701322e-06 
5.677902371e-06 5.6596266386e-06 5.6420579717e-06 5.6256162928e-06 5.6107215242e-06 5.5979371261e-06 5.5878265589e-06 5.5812674728e-06 5.5791375184e-06 
5.5829291365e-06 5.5941347682e-06 5.6152319944e-06 5.6486983959e-06 5.6990657072e-06 5.7708656632e-06 4.1968316224e-06 4.6152316818e-06 4.923338605e-06 
5.145768775e-06 5.3071385749e-06 5.4206251128e-06 5.4994054965e-06 5.5511964412e-06 5.5837146616e-06 5.6012769826e-06 5.6082002289e-06 5.6069619936e-06 
5.6000398698e-06 5.5888502162e-06 5.5748093915e-06 5.558753214e-06 5.5415175016e-06 5.5236323841e-06 5.505627991e-06 5.4879067663e-06 5.4708711539e-06 
5.4549283353e-06 5.4404854918e-06 5.4280889878e-06 5.4182851873e-06 5.4119251118e-06 5.4098597827e-06 5.4135363586e-06 5.424401998e-06 5.444859109e-06 
5.4773100996e-06 5.5261492062e-06 5.5957706653e-06 4.0471224516e-06 4.4505973648e-06 4.747713513e-06 4.962209165e-06 5.1178225893e-06 5.227260841e-06 
5.3032309748e-06 5.3531744354e-06 5.3845326674e-06 5.4014685062e-06 5.4081447868e-06 5.4069507218e-06 5.4002755236e-06 5.3894850268e-06 5.3759450657e-06 
5.3604616434e-06 5.3438407625e-06 5.326593642e-06 5.3092315007e-06 5.2921424267e-06 5.2757145078e-06 5.2603404006e-06 5.2464127615e-06 5.234458465e-06 
5.2250043852e-06 5.218871186e-06 5.2168795312e-06 5.2204249565e-06 5.2309029973e-06 5.2506303633e-06 5.2819237638e-06 5.3290206842e-06 5.3961586099e-06 
3.8799644692e-06 4.2667746896e-06 4.5516190728e-06 4.7572554275e-06 4.9064415628e-06 5.0113596949e-06 5.0841920402e-06 5.1320726899e-06 5.1621357354e-06 
5.1783720745e-06 5.1847726052e-06 5.1836278586e-06 5.1772283656e-06 5.1668835478e-06 5.1539028267e-06 5.1390589149e-06 5.123124525e-06 5.106589761e-06 
5.0899447269e-06 5.0735614815e-06 5.0578120837e-06 5.043072972e-06 5.0297205852e-06 5.018260036e-06 5.0091964373e-06 5.0033165572e-06 5.0014071636e-06 
5.0048061524e-06 5.0148514196e-06 5.0337639876e-06 5.0637648792e-06 5.1089165592e-06 5.1732814925e-06 3.6965746562e-06 4.0651019633e-06 4.336482935e-06 
4.5323997129e-06 4.6745344389e-06 4.7744935265e-06 4.8438833892e-06 4.8895009194e-06 4.9181430095e-06 4.9336119243e-06 4.9397099284e-06 4.9386192892e-06 
4.9325222737e-06 4.9226664125e-06 4.9102992362e-06 4.8961569345e-06 4.880975697e-06 4.8652224627e-06 4.8493641702e-06 4.8337552929e-06 4.8187503037e-06 
4.8047078487e-06 4.7919865737e-06 4.7810677171e-06 4.7724325171e-06 4.7668305545e-06 4.76501141e-06 4.7682497427e-06 4.7778202118e-06 4.7958388613e-06 
4.8244217353e-06 4.8674392828e-06 4.9287619529e-06 3.4983651123e-06 3.8471320638e-06 4.1039616457e-06 4.2893734079e-06 4.4238869002e-06 4.5184862028e-06 
4.5841553959e-06 4.6273269239e-06 4.6544332312e-06 4.6690727061e-06 4.6748437366e-06 4.6738115772e-06 4.6680414824e-06 4.6587140904e-06 4.6470100394e-06 
4.6336260449e-06 4.6192588222e-06 4.6043502728e-06 4.5893422987e-06 4.574570366e-06 4.5603699411e-06 4.5470804395e-06 4.5350412766e-06 4.5247078868e-06 
4.5165357044e-06 4.5112341178e-06 4.5095125154e-06 4.5125772094e-06 4.521634512e-06 4.5386870054e-06 4.5657372718e-06 4.6064482276e-06 4.6644827892e-06 
3.2869716628e-06 3.614663899e-06 3.8559742056e-06 4.030182211e-06 4.1565675434e-06 4.245450555e-06 4.3071515982e-06 4.3477144281e-06 4.3731828001e-06 
4.3869376649e-06 4.3923599731e-06 4.3913901833e-06 4.3859687543e-06 4.3772049825e-06 4.3662081647e-06 4.3536329162e-06 4.3401338524e-06 4.3261261723e-06 
4.3120250753e-06 4.2981457567e-06 4.2848034117e-06 4.2723169463e-06 4.2610052661e-06 4.2512962853e-06 4.2436179181e-06 4.238636687e-06 4.2370191148e-06 
4.2398986206e-06 4.2484086234e-06 4.2644306967e-06 4.2898464141e-06 4.3280973553e-06 4.3826250999e-06 3.0641714334e-06 3.3696517636e-06 3.5946053757e-06 
3.75700507e-06 3.8748236474e-06 3.9576819173e-06 4.0152006893e-06 4.053014056e-06 4.0767561098e-06 4.089578631e-06 4.0946333998e-06 4.0937293451e-06 
4.0886753958e-06 4.0805056573e-06 4.0702542349e-06 4.0585313723e-06 4.0459473131e-06 4.0328891132e-06 4.0197438284e-06 4.0068052892e-06 3.9943673261e-06 
3.9827272286e-06 3.972182286e-06 3.9631314074e-06 3.9559735016e-06 3.9513299125e-06 3.9498219839e-06 3.9525063086e-06 3.9604394794e-06 3.9753755313e-06 
3.9990684996e-06 4.0347266839e-06 4.0855583838e-06 2.8318871003e-06 3.1142100139e-06 3.3221106636e-06 3.4721993939e-06 3.5810865487e-06 3.6576636172e-06 
3.7108220883e-06 3.7457689533e-06 3.7677112033e-06 3.7795616931e-06 3.7842332772e-06 3.7833977558e-06 3.7787269291e-06 3.7711765105e-06 3.7617022133e-06 
3.7508680207e-06 3.7392379159e-06 3.7271696134e-06 3.7150208276e-06 3.7030631147e-06 3.6915680309e-06 3.6808103293e-06 3.6710647627e-06 3.6627000002e-06 
3.6560847107e-06 3.6517931361e-06 3.6503995184e-06 3.6528803537e-06 3.660212138e-06 3.674015939e-06 3.6959128246e-06 3.7288678841e-06 3.7758462072e-06 
2.5921138137e-06 2.8505327048e-06 3.040830597e-06 3.1782114519e-06 3.2778792311e-06 3.3479725894e-06 3.3966301814e-06 3.4286181273e-06 3.4487025472e-06 
3.4595496669e-06 3.4638257122e-06 3.4630609337e-06 3.4587855816e-06 3.45187445e-06 3.4432023328e-06 3.4332854614e-06 3.4226400669e-06 3.4115935765e-06 
3.4004734173e-06 3.389528153e-06 3.3790063475e-06 3.3691594905e-06 3.3602390722e-06 3.3525825464e-06 3.3465273674e-06 3.3425991566e-06 3.3413235352e-06 
3.3435943204e-06 3.3503053292e-06 3.3629403751e-06 3.3829832714e-06 3.4131480562e-06 3.4561487677e-06 2.3469017606e-06 2.5808744153e-06 2.7531702674e-06 
2.8775549949e-06 2.9677942758e-06 3.0312568541e-06 3.0753114738e-06 3.1042733837e-06 3.1224578323e-06 3.1322788224e-06 3.1361503571e-06 3.135457926e-06 
3.1315870191e-06 3.1253296754e-06 3.1174779341e-06 3.1084991914e-06 3.0988608434e-06 3.0888593428e-06 3.0787911424e-06 3.0688812921e-06 3.0593548416e-06 
3.0504394901e-06 3.0423629366e-06 3.0354307126e-06 3.0299483491e-06 3.0263917441e-06 3.0252367955e-06 3.0272927661e-06 3.0333689185e-06 3.0448086983e-06 
3.0629555514e-06 3.0902667699e-06 3.1291996458e-06 2.0983003211e-06 2.3074888372e-06 2.4615338202e-06 2.5727427843e-06 2.6534232436e-06 2.7101633895e-06 
2.7495514135e-06 2.7754454606e-06 2.791703676e-06 2.8004843532e-06 2.8039457858e-06 2.8033267022e-06 2.7998658308e-06 2.7942713119e-06 2.787251286e-06 
2.7792236391e-06 2.7706062572e-06 2.7616641906e-06 2.7526624895e-06 2.7438023648e-06 2.7352850274e-06 2.7273140568e-06 2.7200930325e-06 2.7138951216e-06 
2.7089934912e-06 2.7058136284e-06 2.7047810207e-06 2.7066192075e-06 2.7120517282e-06 2.7222797207e-06 2.7385043231e-06 2.7629225324e-06 2.797731346e-06 
1.8483243142e-06 2.032591655e-06 2.1682848562e-06 2.2662452054e-06 2.3373139905e-06 2.3872945344e-06 2.4219901601e-06 2.4447993816e-06 2.4591207132e-06 
2.4668553254e-06 2.4699043885e-06 2.469359058e-06 2.4663104892e-06 2.46138246e-06 2.4551987481e-06 2.4481274558e-06 2.4405366852e-06 2.4326599103e-06 
2.4247306055e-06 2.4169260106e-06 2.4094233659e-06 2.4024019979e-06 2.3960412331e-06 2.3905816955e-06 2.3862640091e-06 2.3834629718e-06 2.3825533813e-06 
2.3841725801e-06 2.3889579104e-06 2.3979674154e-06 2.4122591384e-06 2.4337683426e-06 2.4644302912e-06 1.598920669e-06 1.7583238958e-06 1.8757073346e-06 
1.9604494039e-06 2.0219285223e-06 2.0651649415e-06 2.0951789128e-06 2.1149103719e-06 2.1272992547e-06 2.1339901969e-06 2.1366278347e-06 2.1361560883e-06 
2.1335188782e-06 2.1292558126e-06 2.1239064999e-06 2.1177893724e-06 2.1112228624e-06 2.1044089403e-06 2.0975495761e-06 2.0907980943e-06 2.084307819e-06 
2.0782338793e-06 2.0727314043e-06 2.0680085495e-06 2.0642734701e-06 2.0618503907e-06 2.0610635359e-06 2.062464248e-06 2.0666038698e-06 2.0743976772e-06 
2.0867609465e-06 2.1053678062e-06 2.1318923847e-06 1.3519249937e-06 1.4867041674e-06 1.5859546229e-06 1.6576060336e-06 1.7095880727e-06 1.746145481e-06 
1.7715229989e-06 1.7882064112e-06 1.7986815027e-06 1.8043388516e-06 1.8065690363e-06 1.8061701636e-06 1.8039403405e-06 1.8003358184e-06 1.7958128488e-06 
1.7906406738e-06 1.7850885353e-06 1.779327204e-06 1.7735274505e-06 1.767818914e-06 1.7623312337e-06 1.7571955749e-06 1.7525431031e-06 1.7485498183e-06 
1.745391721e-06 1.7433429504e-06 1.7426776461e-06 1.7438619812e-06 1.7473621287e-06 1.753951976e-06 1.7644054107e-06 1.7801379477e-06 1.8025651021e-06 
1.1090525484e-06 1.2196187311e-06 1.3010389069e-06 1.3598181883e-06 1.4024616879e-06 1.4324515816e-06 1.4532700449e-06 1.4669562931e-06 1.4755495412e-06 
1.480190551e-06 1.4820200845e-06 1.4816928691e-06 1.4798636322e-06 1.4769066602e-06 1.4731962391e-06 1.468953242e-06 1.4643985416e-06 1.4596722297e-06 
1.4549143981e-06 1.4502313964e-06 1.4457295743e-06 1.4415165334e-06 1.437699875e-06 1.4344239813e-06 1.4318332341e-06 1.4301525238e-06 1.429606741e-06 
1.4305783111e-06 1.4334496593e-06 1.4388556448e-06 1.4474311268e-06 1.4603373238e-06 1.4787354544e-06 8.7185159175e-07 9.5877019861e-07 1.0227764623e-06 
1.0689842007e-06 1.1025072318e-06 1.1260829736e-06 1.1424488441e-06 1.153207917e-06 1.159963266e-06 1.1636116701e-06 1.1650499082e-06 1.1647926767e-06 
1.1633546717e-06 1.1610301283e-06 1.1581132814e-06 1.1547777642e-06 1.15119721e-06 1.1474817481e-06 1.1437415078e-06 1.140060093e-06 1.1365211076e-06 
1.1332091396e-06 1.1302087772e-06 1.1276335221e-06 1.1255968764e-06 1.1242756317e-06 1.1238465793e-06 1.1246103527e-06 1.1268675853e-06 1.1311173543e-06 
1.1378587369e-06 1.1480045938e-06 1.1624677854e-06 6.4161502621e-07 7.0558036705e-07 7.5268400364e-07 7.8668930864e-07 8.1135965468e-07 8.2870956873e-07 
8.4075357777e-07 8.4867141944e-07 8.5364283138e-07 8.5632777328e-07 8.5738620479e-07 8.5719690237e-07 8.5613864246e-07 8.5442795913e-07 8.5228138646e-07 
8.49826705e-07 8.471916953e-07 8.4445740401e-07 8.4170487778e-07 8.3899564256e-07 8.363912243e-07 8.3395387324e-07 8.3174583961e-07 8.29850652e-07 
8.2835183902e-07 8.2737950552e-07 8.2706375633e-07 8.2762583424e-07 8.2928698201e-07 8.3241448175e-07 8.3737561555e-07 8.4484217783e-07 8.5548596301e-07 
4.1904300021e-07 4.6081918567e-07 4.9158288103e-07 5.1379196973e-07 5.2990433524e-07 5.412356784e-07 5.4910170004e-07 5.542728946e-07 5.5751975648e-07 
5.5927330972e-07 5.5996457832e-07 5.5984094366e-07 5.5914978714e-07 5.5803252859e-07 5.5663058784e-07 5.5502741921e-07 5.5330647701e-07 5.5152069336e-07 
5.4972300034e-07 5.4795358097e-07 5.4625261825e-07 5.4466076822e-07 5.4321868691e-07 5.419809274e-07 5.4100204277e-07 5.4036700535e-07 5.4016078748e-07 
5.4052788426e-07 5.4161279082e-07 5.436553815e-07 5.4689553066e-07 5.5177199167e-07 5.5872351789e-07 2.0478201648e-07 2.2519760985e-07 2.4023151226e-07 
2.5108486614e-07 2.5895881392e-07 2.644963251e-07 2.6834036921e-07 2.7086747895e-07 2.7245418706e-07 2.7331113054e-07 2.7364894641e-07 2.7358852743e-07 
2.7325076632e-07 2.7270477353e-07 2.7201965946e-07 2.7123620739e-07 2.7039520059e-07 2.6952250644e-07 2.686439923e-07 2.677792952e-07 2.6694805216e-07 
2.6617013138e-07 2.6546540103e-07 2.6486052065e-07 2.6438214977e-07 2.640718135e-07 2.6397103694e-07 2.6415043337e-07 2.6468061608e-07 2.656788092e-07 
2.6726223686e-07 2.6964531334e-07 2.7304245291e-07 0 0 0 0 0 0 
0 0 0 0 0 0 0 0 0 
0 0 0 0 0 0 0 0 0 
0 0 0 0 0 0 0 0 0 

displacement_y 1 1089 double
0 0 0 0 0 0 0 0 0 
0 0 0 0 0 0 0 0 0 
0 0 0 0 0 0 0 0 0 
0 0 0 0 0 0 2.0478201648e-07 2.2519760985e-07 2.4023151226e-07 
2.5108486614e-07 2.5895881392e-07 2.644963251e-07 2.6834036921e-07 2.7086747895e-07 2.7245418706e-07 2.7331113054e-07 2.7364894641e-07 2.7358852743e-07 
2.7325076632e-07 2.7270477353e-07 2.7201965946e-07 2.7123620739e-07 2.7039520059e-07 2.6952250644e-07 2.686439923e-07 2.677792952e-07 2.6694805216e-07 
2.6617013138e-07 2.6546540103e-07 2.6486052065e-07 2.6438214977e-07 2.640718135e-07 2.6397103694e-07 2.6415043337e-07 2.6468061608e-07 2.656788092e-07 
2.6726223686e-07 2.6964531334e-07 2.7304245291e-07 4.1904300021e-07 4.6081918567e-07 4.9158288103e-07 5.1379196973e-07 5.2990433524e-07 5.412356784e-07 
5.4910170004e-07 5.542728946e-07 5.5751975648e-07 5.5927330972e-07 5.5996457832e-07 5.5984094366e-07 5.5914978714e-07 5.5803252859e-07 5.5663058784e-07 
5.5502741921e-07 5.5330647701e-07 5.5152069336e-07 5.4972300034e-07 5.4795358097e-07 5.4625261825e-07 5.4466076822e-07 5.4321868691e-07 5.419809274e-07 
5.4100204277e-07 5.4036700535e-07 5.4016078748e-07 5.4052788426e-07 5.4161279082e-07 5.436553815e-07 5.4689553066e-07 5.5177199167e-07 5.5872351789e-07 
6.4161502621e-07 7.0558036705e-07 7.5268400364e-07 7.8668930864e-07 8.1135965468e-07 8.2870956873e-07 8.4075357777e-07 8.4867141944e-07 8.5364283138e-07 
8.5632777328e-07 8.5738620479e-07 8.5719690237e-07 8.5613864246e-07 8.5442795913e-07 8.5228138646e-07 8.49826705e-07 8.471916953e-07 8.4445740401e-07 
8.4170487778e-07 8.3899564256e-07 8.363912243e-07 8.3395387324e-07 8.3174583961e-07 8.29850652e-07 8.2835183902e-07 8.2737950552e-07 8.2706375633e-07 
8.2762583424e-07 8.2928698201e-07 8.3241448175e-07 8.3737561555e-07 8.4484217783e-07 8.5548596301e-07 8.7185159175e-07 9.5877019862e-07 1.0227764623e-06 
1.0689842007e-06 1.1025072318e-06 1.1260829736e-06 1.1424488441e-06 1.153207917e-06 1.159963266e-06 1.1636116701e-06 1.1650499082e-06 1.1647926767e-06 
1.1633546717e-06 1.1610301283e-06 1.1581132814e-06 1.1547777642e-06 1.15119721e-06 1.1474817481e-06 1.1437415078e-06 1.140060093e-06 1.1365211076e-06 
1.1332091396e-06 1.1302087772e-06 1.1276335221e-06 1.1255968764e-06 1.1242756317e-06 1.1238465793e-06 1.1246103527e-06 1.1268675853e-06 1.1311173543e-06 
1.1378587369e-06 1.1480045938e-06 1.1624677854e-06 1.1090525484e-06 1.2196187311e-06 1.3010389069e-06 1.3598181883e-06 1.4024616879e-06 1.4324515816e-06 
1.4532700449e-06 1.4669562931e-06 1.4755495412e-06 1.480190551e-06 1.4820200845e-06 1.4816928691e-06 1.4798636322e-06 1.4769066602e-06 1.4731962391e-06 
1.468953242e-06 1.4643985416e-06 1.4596722297e-06 1.4549143981e-06 1.4502313964e-06 1.4457295743e-06 1.4415165334e-06 1.437699875e-06 1.4344239813e-06 
1.4318332341e-06 1.4301525238e-06 1.429606741e-06 1.4305783111e-06 1.4334496593e-06 1.4388556448e-06 1.4474311268e-06 1.4603373238e-06 1.4787354544e-06 
1.3519249937e-06 1.4867041674e-06 1.5859546229e-06 1.6576060336e-06 1.7095880727e-06 1.746145481e-06 1.7715229989e-06 1.7882064112e-06 1.7986815027e-06 
1.8043388516e-06 1.8065690363e-06 1.8061701636e-06 1.8039403405e-06 1.8003358184e-06 1.7958128488e-06 1.7906406738e-06 1.7850885353e-06 1.779327204e-06 
1.7735274505e-06 1.767818914e-06 1.7623312337e-06 1.7571955749e-06 1.7525431031e-06 1.7485498183e-06 1.745391721e-06 1.7433429504e-06 1.7426776461e-06 
1.7438619812e-06 1.7473621287e-06 1.753951976e-06 1.7644054107e-06 1.7801379477e-06 1.8025651021e-06 1.598920669e-06 1.7583238958e-06 1.8757073346e-06 
1.9604494039e-06 2.0219285223e-06 2.0651649415e-06 2.0951789128e-06 2.1149103719e-06 2.1272992547e-06 2.1339901969e-06 2.1366278347e-06 2.1361560883e-06 
2.1335188782e-06 2.1292558126e-06 2.1239064999e-06 2.1177893724e-06 2.1112228624e-06 2.1044089403e-06 2.0975495761e-06 2.0907980943e-06 2.084307819e-06 
2.0782338793e-06 2.0727314043e-06 2.0680085495e-06 2.0642734701e-06 2.0618503907e-06 2.0610635359e-06 2.062464248e-06 2.0666038698e-06 2.0743976772e-06 
2.0867609465e-06 2.1053678062e-06 2.1318923847e-06 1.8483243142e-06 2.032591655e-06 2.1682848562e-06 2.2662452054e-06 2.3373139905e-06 2.3872945344e-06 
2.4219901601e-06 2.4447993816e-06 2.4591207132e-06 2.4668553254e-06 2.4699043885e-06 2.469359058e-06 2.4663104892e-06 2.46138246e-06 2.4551987481e-06 
2.4481274558e-06 2.4405366852e-06 2.4326599103e-06 2.4247306055e-06 2.4169260106e-06 2.4094233659e-06 2.4024019979e-06 2.3960412331e-06 2.3905816955e-06 
2.3862640091e-06 2.3834629718e-06 2.3825533813e-06 2.3841725801e-06 2.3889579104e-06 2.3979674154e-06 2.4122591384e-06 2.4337683426e-06 2.4644302912e-06 
2.0983003211e-06 2.3074888372e-06 2.4615338202e-06 2.5727427843e-06 2.6534232436e-06 2.7101633895e-06 2.7495514135e-06 2.7754454606e-06 2.791703676e-06 
2.8004843532e-06 2.8039457858e-06 2.8033267022e-06 2.7998658308e-06 2.7942713119e-06 2.787251286e-06 2.7792236391e-06 2.7706062572e-06 2.7616641906e-06 
2.7526624895e-06 2.7438023648e-06 2.7352850274e-06 2.7273140568e-06 2.7200930325e-06 2.7138951216e-06 2.7089934912e-06 2.7058136284e-06 2.7047810207e-06 
2.7066192075e-06 2.7120517282e-06 2.7222797207e-06 2.7385043231e-06 2.7629225324e-06 2.797731346e-06 2.3469017606e-06 2.5808744154e-06 2.7531702674e-06 
2.8775549949e-06 2.9677942758e-06 3.0312568541e-06 3.0753114738e-06 3.1042733837e-06 3.1224578323e-06 3.1322788224e-06 3.1361503571e-06 3.135457926e-06 
3.1315870191e-06 3.1253296754e-06 3.1174779341e-06 3.1084991914e-06 3.0988608434e-06 3.0888593428e-06 3.0787911424e-06 3.0688812921e-06 3.0593548416e-06 
3.0504394901e-06 3.0423629366e-06 3.0354307126e-06 3.0299483491e-06 3.0263917441e-06 3.0252367955e-06 3.0272927661e-06 3.0333689185e-06 3.0448086983e-06 
3.0629555514e-06 3.0902667699e-06 3.1291996458e-06 2.5921138137e-06 2.8505327048e-06 3.040830597e-06 3.1782114519e-06 3.2778792311e-06 3.3479725894e-06 
3.3966301814e-06 3.4286181273e-06 3.4487025472e-06 3.4595496669e-06 3.4638257122e-06 3.4630609337e-06 3.4587855816e-06 3.45187445e-06 3.4432023328e-06 
3.4332854614e-06 3.4226400669e-06 3.4115935765e-06 3.4004734173e-06 3.389528153e-06 3.3790063475e-06 3.3691594905e-06 3.3602390722e-06 3.3525825464e-06 
3.3465273674e-06 3.3425991566e-06 3.3413235352e-06 3.3435943204e-06 3.3503053292e-06 3.3629403751e-06 3.3829832714e-06 3.4131480562e-06 3.4561487677e-06 
2.8318871003e-06 3.1142100139e-06 3.3221106636e-06 3.4721993939e-06 3.5810865487e-06 3.6576636172e-06 3.7108220883e-06 3.7457689533e-06 3.7677112033e-06 
3.7795616931e-06 3.7842332772e-06 3.7833977558e-06 3.7787269291e-06 3.7711765105e-06 3.7617022133e-06 3.7508680207e-06 3.7392379159e-06 3.7271696134e-06 
3.7150208276e-06 3.7030631147e-06 3.6915680309e-06 3.6808103293e-06 3.6710647627e-06 3.6627000002e-06 3.6560847107e-06 3.6517931361e-06 3.6503995184e-06 
3.6528803537e-06 3.660212138e-06 3.674015939e-06 3.6959128246e-06 3.7288678841e-06 3.7758462072e-06 3.0641714334e-06 3.3696517636e-06 3.5946053757e-06 
3.75700507e-06 3.8748236474e-06 3.9576819173e-06 4.0152006893e-06 4.053014056e-06 4.0767561098e-06 4.089578631e-06 4.0946333998e-06 4.0937293451e-06 
4.0886753958e-06 4.0805056573e-06 4.0702542349e-06 4.0585313723e-06 4.0459473131e-06 4.0328891132e-06 4.0197438284e-06 4.0068052892e-06 3.9943673261e-06 
3.9827272286e-06 3.972182286e-06 3.9631314074e-06 3.9559735016e-06 3.9513299125e-06 3.9498219839e-06 3.9525063086e-06 3.9604394794e-06 3.9753755313e-06 
3.9990684996e-06 4.0347266839e-06 4.0855583838e-06 3.2869716628e-06 3.614663899e-06 3.8559742057e-06 4.030182211e-06 4.1565675434e-06 4.245450555e-06 
4.3071515982e-06 4.3477144281e-06 4.3731828001e-06 4.3869376649e-06 4.3923599731e-06 4.3913901833e-06 4.3859687543e-06 4.3772049825e-06 4.3662081647e-06 
4.3536329162e-06 4.3401338524e-06 4.3261261723e-06 4.3120250753e-06 4.2981457567e-06 4.2848034117e-06 4.2723169463e-06 4.2610052661e-06 4.2512962853e-06 
4.2436179181e-06 4.238636687e-06 4.2370191148e-06 4.2398986206e-06 4.2484086234e-06 4.2644306967e-06 4.2898464141e-06 4.3280973553e-06 4.3826250999e-06 
3.4983651123e-06 3.8471320638e-06 4.1039616457e-06 4.2893734079e-06 4.4238869002e-06 4.5184862028e-06 4.5841553959e-06 4.6273269239e-06 4.6544332312e-06 
4.6690727061e-06 4.6748437366e-06 4.6738115772e-06 4.6680414824e-06 4.6587140904e-06 4.6470100394e-06 4.6336260449e-06 4.6192588222e-06 4.6043502728e-06 
4.5893422987e-06 4.574570366e-06 4.5603699411e-06 4.5470804395e-06 4.5350412766e-06 4.5247078868e-06 4.5165357044e-06 4.5112341178e-06 4.5095125154e-06 
4.5125772094e-06 4.521634512e-06 4.5386870054e-06 4.5657372718e-06 4.6064482276e-06 4.6644827892e-06 3.6965746562e-06 4.0651019633e-06 4.336482935e-06 
4.5323997129e-06 4.6745344389e-06 4.7744935265e-06 4.8438833892e-06 4.8895009194e-06 4.9181430095e-06 4.9336119243e-06 4.9397099284e-06 4.9386192892e-06 
4.9325222737e-06 4.9226664125e-06 4.9102992362e-06 4.8961569345e-06 4.880975697e-06 4.8652224627e-06 4.8493641702e-06 4.8337552929e-06 4.8187503037e-06 
4.8047078487e-06 4.7919865737e-06 4.7810677171e-06 4.7724325171e-06 4.7668305545e-06 4.76501141e-06 4.7682497427e-06 4.7778202118e-06 4.7958388613e-06 
4.8244217353e-06 4.8674392828e-06 4.9287619529e-06 3.8799644692e-06 4.2667746896e-06 4.5516190728e-06 4.7572554275e-06 4.9064415628e-06 5.0113596949e-06 
5.0841920402e-06 5.1320726899e-06 5.1621357354e-06 5.1783720745e-06 5.1847726052e-06 5.1836278586e-06 5.1772283656e-06 5.1668835478e-06 5.1539028267e-06 
5.1390589149e-06 5.123124525e-06 5.106589761e-06 5.0899447269e-06 5.0735614815e-06 5.0578120837e-06 5.043072972e-06 5.0297205852e-06 5.018260036e-06 
5.0091964373e-06 5.0033165572e-06 5.0014071636e-06 5.0048061524e-06 5.0148514196e-06 5.0337639876e-06 5.0637648792e-06 5.1089165592e-06 5.1732814925e-06 
4.0471224516e-06 4.4505973648e-06 4.747713513e-06 4.962209165e-06 5.1178225893e-06 5.227260841e-06 5.3032309748e-06 5.3531744354e-06 5.3845326675e-06 
5.4014685062e-06 5.4081447868e-06 5.4069507218e-06 5.4002755236e-06 5.3894850268e-06 5.3759450657e-06 5.3604616434e-06 5.3438407625e-06 5.326593642e-06 
5.3092315007e-06 5.2921424267e-06 5.2757145078e-06 5.2603404006e-06 5.2464127616e-06 5.234458465e-06 5.2250043852e-06 5.218871186e-06 5.2168795312e-06 
5.2204249565e-06 5.2309029973e-06 5.2506303633e-06 5.2819237638e-06 5.3290206842e-06 5.3961586099e-06 4.1968316224e-06 4.6152316819e-06 4.923338605e-06 
5.145768775e-06 5.3071385749e-06 5.4206251128e-06 5.4994054965e-06 5.5511964412e-06 5.5837146616e-06 5.6012769826e-06 5.6082002289e-06 5.6069619936e-06 
5.6000398698e-06 5.5888502162e-06 5.5748093915e-06 5.558753214e-06 5.5415175016e-06 5.5236323841e-06 5.505627991e-06 5.4879067663e-06 5.4708711539e-06 
5.4549283353e-06 5.4404854918e-06 5.4280889878e-06 5.4182851873e-06 5.4119251118e-06 5.4098597827e-06 5.4135363586e-06 5.424401998e-06 5.444859109e-06 
5.4773100996e-06 5.5261492063e-06 5.5957706653e-06 4.3281529842e-06 4.7596450308e-06 5.0773928032e-06 5.3067829457e-06 5.4732021028e-06 5.590239702e-06 
5.6714851709e-06 5.7248966851e-06 5.75843242e-06 5.7765442765e-06 5.7836841553e-06 5.7824071749e-06 5.7752684536e-06 5.7637286691e-06 5.7492484987e-06 
5.7326899138e-06 5.7149148857e-06 5.6964701322e-06 5.677902371e-06 5.6596266386e-06 5.6420579717e-06 5.6256162928e-06 5.6107215242e-06 5.5979371261e-06 
5.5878265589e-06 5.5812674728e-06 5.5791375184e-06 5.5829291365e-06 5.5941347683e-06 5.6152319944e-06 5.6486983959e-06 5.6990657073e-06 5.7708656632e-06 
4.4403735086e-06 4.8830532983e-06 5.2090396477e-06 5.4443774271e-06 5.6151115068e-06 5.7351836615e-06 5.8185356662e-06 5.8733320363e-06 5.9077372871e-06 
5.9263187485e-06 5.9336437504e-06 5.9323336603e-06 5.9250098461e-06 5.9131708576e-06 5.8983152447e-06 5.8813273282e-06 5.8630914284e-06 5.8441684386e-06 
5.8251192517e-06 5.8063696654e-06 5.7883454774e-06 5.771477498e-06 5.7561965372e-06 5.7430806648e-06 5.7327079503e-06 5.7259788001e-06 5.7237936201e-06 
5.7276835474e-06 5.7391797192e-06 5.7608239551e-06 5.7951580748e-06 5.8468313118e-06 5.9204928999e-06 4.5330812993e-06 4.9850035244e-06 5.3177959396e-06 
5.5580471898e-06 5.7323459199e-06 5.8549249863e-06 5.9400172456e-06 5.9959576749e-06 6.0310812515e-06 6.0500506636e-06 6.0575285996e-06 6.0561911571e-06 
6.0487144335e-06 6.0366282661e-06 6.0214624921e-06 6.0041198955e-06 5.9855032598e-06 5.9661851886e-06 5.9467382856e-06 5.9275972384e-06 5.9091967347e-06 
5.8919765792e-06 5.8763765767e-06 5.8629868662e-06 5.8523975863e-06 5.8455279423e-06 5.8432971393e-06 5.847268282e-06 5.8590044752e-06 5.8811006076e-06 
5.916151568e-06 5.9689036583e-06 6.0441031808e-06 4.606094779e-06 5.0652960295e-06 5.403448669e-06 5.6475696004e-06 5.824675727e-06 5.9492291512e-06 
6.0356919753e-06 6.0925334265e-06 6.1282227319e-06 6.1474976808e-06 6.1550960625e-06 6.153737078e-06 6.1461399282e-06 6.1338590912e-06 6.118449045e-06 
6.1008271144e-06 6.0819106241e-06 6.0622814005e-06 6.0425212699e-06 6.0230719215e-06 6.0043750443e-06 5.986877527e-06 5.9710262583e-06 5.9574208822e-06 
5.9466610428e-06 5.9396807508e-06 5.9374140166e-06 5.9414491218e-06 5.9533743477e-06 5.9758263783e-06 6.0114418978e-06 6.065043656e-06 6.1414544029e-06 
4.659524235e-06 5.1240520961e-06 5.4661272149e-06 5.7130798832e-06 5.8922403931e-06 6.0182386034e-06 6.1057043729e-06 6.1632051696e-06 6.1993084613e-06 
6.2188069944e-06 6.2264935153e-06 6.2251187669e-06 6.2174334922e-06 6.2050102008e-06 6.1894214023e-06 6.1715950621e-06 6.1524591456e-06 6.1326022282e-06 
6.1126128855e-06 6.0929379299e-06 6.074024174e-06 6.0563236902e-06 6.0402885511e-06 6.0265253563e-06 6.0156407057e-06 6.0085794441e-06 6.0062864165e-06 
6.0103683278e-06 6.022431883e-06 6.0451443511e-06 6.081173001e-06 6.1353965252e-06 6.2126936162e-06 4.6936895941e-06 5.1616235457e-06 5.5062068861e-06 
5.7549703029e-06 5.9354444841e-06 6.06236656e-06 6.150473661e-06 6.2083960748e-06 6.2447640892e-06 6.2644055927e-06 6.2721484741e-06 6.2707636455e-06 
6.2630220196e-06 6.250507636e-06 6.2348045346e-06 6.2168474851e-06 6.1975712569e-06 6.1775687413e-06 6.1574328293e-06 6.1376136096e-06 6.118561171e-06 
6.1007309008e-06 6.084578186e-06 6.0707140744e-06 6.0597496135e-06 6.0526365761e-06 6.0503267352e-06 6.0544385766e-06 6.0665905863e-06 6.0894695906e-06 
6.1257624159e-06 6.1803835271e-06 6.258247389e-06 4.7091653958e-06 5.1786421962e-06 5.5243616797e-06 5.773945307e-06 5.9550145387e-06 6.0823550958e-06 
6.1707526992e-06 6.2288660919e-06 6.2653540171e-06 6.2850602817e-06 6.2928286924e-06 6.2914392979e-06 6.2836721467e-06 6.2711165013e-06 6.2553616244e-06 
6.2373453678e-06 6.218005583e-06 6.1979371161e-06 6.1777348129e-06 6.1578502463e-06 6.1387349889e-06 6.1208459296e-06 6.1046399569e-06 6.0907301332e-06 
6.0797295208e-06 6.0725930307e-06 6.0702755739e-06 6.0744009726e-06 6.0865930493e-06 6.1095474892e-06 6.1459599775e-06 6.2007611826e-06 6.2788817734e-06 
4.7066957805e-06 5.1759263744e-06 5.5214645532e-06 5.770917292e-06 5.9518915661e-06 6.0791653423e-06 6.1675165875e-06 6.225599504e-06 6.262068294e-06 
6.281764224e-06 6.2895285608e-06 6.2881398949e-06 6.280376817e-06 6.2678277561e-06 6.2520811415e-06 6.2340743331e-06 6.2147446906e-06 6.1946867482e-06 
6.1744950396e-06 6.154620901e-06 6.1355156682e-06 6.1176359904e-06 6.1014385166e-06 6.0875359876e-06 6.0765411442e-06 6.0694083967e-06 6.0670921552e-06 
6.0712153904e-06 6.0834010733e-06 6.1063434752e-06 6.1427368678e-06 6.1975093337e-06 6.2755889559e-06 4.6872228203e-06 5.1545120716e-06 5.4986206591e-06 
5.7470413399e-06 5.9272668711e-06 6.0540140789e-06 6.1419997895e-06 6.1998424002e-06 6.2361603082e-06 6.2557747505e-06 6.263506964e-06 6.2621240434e-06 
6.2543930836e-06 6.2418959418e-06 6.2262144755e-06 6.2082821665e-06 6.1890324963e-06 6.1690575394e-06 6.1489493698e-06 6.1291574562e-06 6.1101312673e-06 
6.0923255629e-06 6.0761951027e-06 6.0623500924e-06 6.0514007379e-06 6.0442975006e-06 6.041990842e-06 6.0460970183e-06 6.0582322855e-06 6.0810797681e-06 
6.1173225906e-06 6.171868447e-06 6.2496250313e-06 4.6518114262e-06 5.1155703646e-06 5.4570792538e-06 5.7036231468e-06 5.8824870962e-06 6.0082767445e-06 
6.0955977338e-06 6.1530033506e-06 6.1890468813e-06 6.2085131389e-06 6.2161869365e-06 6.2148144637e-06 6.2071419103e-06 6.1947391829e-06 6.1791761882e-06 
6.1613793555e-06 6.1422751143e-06 6.1224510657e-06 6.1024948108e-06 6.0828524227e-06 6.0639699744e-06 6.0462987898e-06 6.0302901933e-06 6.0165497804e-06 
6.0056831469e-06 5.9986335737e-06 5.9963443417e-06 6.0004194963e-06 6.012463083e-06 6.0351379557e-06 6.0711069681e-06 6.1252407373e-06 6.20240988e-06 
4.6016761736e-06 5.0604369146e-06 5.3982651657e-06 5.6421519131e-06 5.8190881427e-06 5.9435220833e-06 6.0299019641e-06 6.0866888875e-06 6.1223439563e-06 
6.1416004148e-06 6.1491915074e-06 6.1478338266e-06 6.1402439647e-06 6.1279749087e-06 6.1125796453e-06 6.0949746193e-06 6.0760762755e-06 6.0564658821e-06 
6.0367247073e-06 6.0172940165e-06 5.9986150752e-06 5.9811343432e-06 5.9652982806e-06 5.951705956e-06 5.9409564385e-06 5.9339828426e-06 5.931718283e-06 
5.9357495173e-06 5.9476633033e-06 5.9700937958e-06 6.0056751495e-06 6.0592254878e-06 6.1355629343e-06 4.5380631512e-06 4.9904820384e-06 5.3236401921e-06 
5.5641554782e-06 5.7386457624e-06 5.8613595431e-06 5.9465453187e-06 6.0025472264e-06 6.0377094038e-06 6.0566996633e-06 6.0641858176e-06 6.0628469052e-06 
6.0553619646e-06 6.0432625146e-06 6.0280800735e-06 6.0107184173e-06 5.9920813219e-06 5.9727420203e-06 5.9532737451e-06 5.9341116619e-06 5.915690936e-06 
5.8984518556e-06 5.8828347088e-06 5.8694302829e-06 5.8588293655e-06 5.8519521717e-06 5.849718917e-06 5.8536944241e-06 5.8654435153e-06 5.8875639314e-06 
5.9226534127e-06 5.9754634775e-06 6.0507456442e-06 4.4621460946e-06 4.9069964864e-06 5.2345812522e-06 5.4710729687e-06 5.6426442127e-06 5.7633051201e-06 
5.8470658266e-06 5.9021308809e-06 5.9367048318e-06 5.9553774041e-06 5.9627383228e-06 5.961421809e-06 5.9540620837e-06 5.9421650448e-06 5.9272365901e-06 
5.9101653763e-06 5.8918400601e-06 5.8728242847e-06 5.8536816935e-06 5.8348401719e-06 5.8167276055e-06 5.7997769169e-06 5.7844210287e-06 5.7712408449e-06 
5.7608172697e-06 5.7540551242e-06 5.7518592295e-06 5.7557682305e-06 5.7673207717e-06 5.7890711363e-06 5.8235736072e-06 5.8755002148e-06 5.9495229895e-06 

s_xx 1 1089 double
-10606215.52 3242295.9685 3205707.6342 -1996659.4836 -3645484.3454 -3694798.0323 -4098631.6252 -4523346.9722 -4635305.9213 
-4566490.8225 -4448884.0259 -4280180.3812 -4058074.7378 -3800369.6313 -3524867.5972 -3236442.6963 -2939968.9894 -2639406.434 
-2338714.9876 -2040119.0396 -1745842.9791 -1456036.1571 -1170847.9243 -895511.7579 -635261.13488 -374179.84035 -96351.659407 
125509.21914 218688.60646 503573.95085 1300552.7006 1038479.6306 -1853790.4844 -11265643.554 2957166.4827 3026029.1486 
-2185036.9858 -3802013.3501 -3807733.0007 -4185028.9943 -4592229.5771 -4687662.9953 -4604186.5129 -4474657.394 -4295964.3515 
-4064996.0984 -3799426.8892 -3516930.9784 -3222231.6943 -2920052.3652 -2614305.9098 -2308905.2464 -2006079.2803 -1708056.9167 
-1415025.7334 -1127173.3081 -849935.86335 -588749.62195 -327656.2785 -50697.52763 167774.52454 253407.77191 531287.00863 
1326497.0288 1040117.2688 -1926772.8352 -12902245.036 1948158.0633 2345434.9933 -2692335.8037 -4147075.8855 -4015711.1361 
-4295167.4396 -4631704.4642 -4671581.8782 -4545289.258 -4383316.1801 -4180140.2506 -3930239.0756 -3650203.778 -3356625.4808 
-3053572.4554 -2745112.9732 -2434861.6407 -2126433.0641 -1821984.5223 -1523673.2941 -1231799.7501 -946664.26079 -674130.29861 
-420061.33583 -168981.25688 94586.053849 294008.49184 352653.9526 597840.11075 1356884.6409 1005218.1367 -2081728.8083 
-15582630.934 165327.48068 1129313.1542 -3540374.8531 -4693437.4817 -4325067.6269 -4430458.1846 -4639505.8476 -4582107.309 
-4382911.8021 -4166568.56 -3923428.8905 -3643844.1013 -3342300.7252 -3033285.2948 -2719671.7638 -2404334.0858 -2090319.7927 
-1780676.4163 -1477408.1118 -1182519.0342 -896502.03173 -619849.95226 -359093.17472 -120762.07801 109576.07959 346354.0398 
509977.39547 520851.73945 705876.44521 1391950.8862 931214.24234 -2324194.3067 -19370236.318 -2438952.9175 -655349.24105 
-4749941.4145 -5453245.5638 -4741819.8531 -4592222.4467 -4613447.3267 -4414488.4755 -4110462.0529 -3816484.2192 -3516959.7369 
-3196293.3685 -2865781.9987 -2536722.5121 -2210221.9519 -1887387.3611 -1570413.7398 -1261496.0884 -962398.82324 -674886.36099 
-399728.58997 -137695.39859 103761.85682 317191.81995 515387.40241 711141.51585 821177.22966 762217.61323 857912.69058 
1431912.4857 815651.54365 -2659435.5906 -24318767.168 -5905170.9572 -3036630.2285 -6338656.3625 -6436760.7402 -5271022.7429 
-4781521.7522 -4551605.8988 -4164623.3134 -3722275.5483 -3326264.1561 -2953137.9399 -2579445.7028 -2212155.3603 -1858234.828 
-1516423.2722 -1185459.8593 -866387.3671 -560248.57321 -268477.16256 7493.1799583 266526.82265 507488.13381 721738.54711 
900639.49617 1054717.423 1194498.7697 1232272.7365 1080328.524 1056078.3218 1476934.3192 656431.06065 -3091896.9095 
-30453876.89 -10253204.873 -6028361.1117 -8315007.6487 -7648806.5265 -5914961.6063 -4998676.7497 -4452828.002 -3830291.4087 
-3215374.0819 -2692383.1333 -2228058.6669 -1789140.7864 -1377101.8306 -993414.13834 -633833.97806 -294117.61817 26151.200469 
327388.73701 608585.27048 868731.0799 1106234.0778 1319502.1767 1498437.6941 1632942.9477 1730635.8041 1799134.1301 
1745530.2352 1476916.429 1301386.5326 1527034.3672 452480.54194 -3623654.3343 -37782022.321 -15488813.564 -9634611.5593 
-10681231.382 -9090488.1085 -6674030.3337 -5243506.6519 -4316493.6084 -3410567.7484 -2588625.7878 -1913564.4422 -1340350.4425 
-823950.51909 -359166.04115 59201.622273 438998.36412 788070.07733 1108601.1204 1402775.852 1670102.5186 1910089.3669 
2120596.5903 2299484.3824 2434922.801 2515081.9039 2544023.5132 2525809.451 2361573.651 1952450.047 1594086.7564 
1582131.8966 203432.4082 -4255164.7684 -46277028.047 -21593754.723 -13842857.629 -13428936.193 -10756589.843 -7545407.5264 
-5514978.1907 -4142889.5321 -2906729.2471 -1844037.2656 -992353.51743 -292948.11479 312908.83011 838239.64718 1296066.6663 
1698444.7664 2057428.8263 2377274.3274 2662236.7511 2912434.5912 3127986.3415 3306115.1424 3444044.1343 3527944.2747 
3543986.521 3492040.9902 3371977.7989 3078235.0206 2505250.7284 1933130.1071 1641978.3414 -89883.08066 -4984132.6713 
-55890262.867 -28533243.664 -18629136.277 -16542414.012 -12637550.176 -8524065.4383 -5811480.4696 -3932937.9791 -2321580.6763 
-985788.00222 66060.602201 908236.70315 1615011.8669 2208340.4799 2710176.9287 3137367.9605 3506760.3227 3824971.8854 
4098620.5188 4328523.795 4515499.2863 4656047.383 4746668.4755 4771279.066 4713795.6566 4569284.6749 4332812.5484 
3891423.3092 3132160.9894 2316574.4564 1706212.5777 -425808.0115 -5806370.6757 -66537476.111 -36246270.716 -23951351.079 
-19994352.918 -14716911.949 -9601473.1014 -6130481.3032 -3688562.6472 -1660343.2261 -21496.741373 1252303.1056 2252578.1506 
3070850.2294 3739035.3753 4289049.6214 4743072.2912 5123282.7078 5438931.5765 5699269.6025 5905896.0881 6060410.3358 
6158510.6346 6195895.2735 6153990.6542 6014223.1782 5766286.0727 5399872.5651 4793998.1313 3827678.247 2741060.7041 
1774293.2941 -801373.53165 -6714689.3219 -78111241.495 -44654725.541 -29755578.008 -23749886.049 -16973736.821 -10766829.198 
-6468862.0584 -3412355.2185 -929828.49603 1038961.0588 2554256.3959 3726363.7696 4665589.4346 5414739.4186 6016619.7496 
6499228.9615 6890565.5882 7202756.878 7447930.079 7628540.9088 7747045.0851 7798267.5545 7777033.2631 7662067.9183 
7432097.2272 7070926.4816 6562360.9735 5776832.4014 4584772.4639 3202308.0815 1845566.1748 -1212752.9818 -7699949.114 
-90470639.352 -53655805.736 -35970816.772 -27763231.035 -19380607.105 -12006046.071 -6822649.022 -3107863.233 -139135.97938 
2182459.5686 3955850.2408 5311431.5688 6379599.0839 7214843.4894 7871655.4881 8384268.2117 8786914.7918 9094807.4486 
9323158.402 9475343.9264 9554740.296 9555238.5321 9470729.656 9277060.8631 8950079.3488 8467260.248 7806078.6952 
6827929.4002 5394207.0724 3694703.6645 1919211.1295 -1654882.8201 -8750190.4718 -103454675.44 -63131859.165 -42515793.083 
-31982056.549 -21906228.911 -13303078.436 -7187373.3912 -2779229.083 701239.18206 3393899.3661 5438619.4312 6986926.8105 
8190348.9371 9115702.6404 9829804.7498 10373456.793 10787460.298 11090280.457 11300382.464 11422115.189 11459827.5 
11406428.102 11254825.697 10977848.546 10548324.909 9937040.7848 9114782.1715 7933568.904 6245420.8171 4211836.4611 
1994314.386 -2121951.6629 -9851767.9402 -116876495.65 -72946124.105 -49296013.135 -36345597.561 -24514312.21 -14639354.482 
-7557921.772 -2431352.8453 1579013.5351 4655648.6369 6981023.7277 8728536.1237 10071583.141 11089770.807 11862705.15 
12437995.003 12863249.195 13160306.845 13351007.07 13440709.269 13434772.844 13325089.946 13103552.726 12739873.435 
12203764.32 11459060.29 10469596.253 9077811.8818 7126146.847 4746267.2691 2069839.2679 -2607187.3114 -10988862.624 
-130536005.7 -82951988.389 -56210163.056 -40788762.256 -27166018.551 -15995024.767 -7928873.7327 -2069551.5121 2480955.8289 
5948745.3856 8559914.2531 10510141.164 11995104.851 13107472.19 13939910.055 14546971.727 14983210.483 15273909.838 
15444353.304 15500933.599 15450043.443 15282539.374 14989277.932 14536804.658 13891665.091 13010585.306 11850291.381 
10243578.58 8023242.1712 5290030.9388 2144693.6685 -3103317.0449 -12144548.607 -144219616.45 -92992795.625 -63149974.388 
-45242048.227 -29819912.633 -17348938.661 -8294497.3661 -1699568.8661 3392866.7213 7252869.6947 10150500.353 12303781.702 
13930736.749 15137160.134 16028846.497 16667321.937 17114112.552 17397962.742 17547616.913 17570507.675 17474067.64 
17248114.88 16882467.469 16340503.004 15585599.087 14567326.762 13235257.074 11412626.275 8922670.6169 5834626.2849 
2217729.4631 -3602557.4412 -13300772.021 -157710042.81 -102909037.58 -70005195.36 -49634731.78 -32433862.485 -18679613.385 
-8649010.3931 -1327309.6215 4300232.8167 8547278.6736 11727489.701 14080941.135 15847708.211 17146571.62 18096312.054 
18765346.015 19222090.003 19498710.809 19627375.22 19616545.786 19474685.055 19190586.272 18753042.681 18122312.996 
17258655.934 16104555.059 14602493.936 12566386.581 9810147.0086 6371406.0595 2287794.575 -4096972.1566 -14439178.847 
-170791549.22 -112542205.18 -76666252.701 -53896575.313 -34966056.526 -19965752.564 -8986719.6525 -958696.75325 5188577.1732 
9811307.3582 13265699.033 15813235.057 17715398.29 19103606.265 20109276.519 20807523.416 21273461.321 21542586.216 
21650394.084 21606351.004 21419923.055 21078908.675 20571106.303 19853754.722 18884092.713 17597697.118 15930144.777 
13686413.736 10671482.037 6891785.7036 2353760.7555 -4578663.554 -15541557.972 -183255164.15 -121738619.44 -83026899.882 
-57959524.976 -37376014.229 -21186761.041 -9302158.8095 -599528.46049 6043809.0811 11024868.053 14740662.692 17473097.18 
19504075.699 20977102.075 22035680.137 22761322.767 23235542.851 23497019.316 23584431.089 23508205.396 23278769.464 
22882972.831 22307665.032 21507212.16 20435980.308 19022930.279 17197022.88 14754830.422 11492925.216 7387450.8443 
2414550.887 -5039963.5576 -16590281.391 -194908387.28 -130356564.79 -88989148.223 -61760871.192 -39626467.322 -22323702.892 
-9590344.183 -255211.2271 6852875.9426 12169380.665 16129766.278 19035057.019 21186277.124 22738280.305 23845920.277 
24596710.578 25078164.745 25331949.432 25399731.297 25292841.576 25022611.504 24575002.257 23935975.008 23057214.855 
21890406.894 20358288.136 18383595.594 15755157.824 12261803.382 7850743.5567 2469189.6381 -5473789.1408 -17569123.546 
-205574785.6 -138265999.04 -94463067.047 -65243118.061 -41683280.523 -23359259.917 -9846761.728 69232.061776 7603739.4685 
13227737.463 17412203.016 20475690.259 22736753.327 24360688.68 25512792.78 26286091.505 26773610.733 27019764.66 
27068967.481 26933383.739 26625177.974 26129496.961 25431487.476 24480386.016 23225429.078 21583615.503 19471944.132 
16672281.571 12966494.422 8274646.2409 2516800.5826 -5873628.421 -18463226.638 -215106412.01 -145357682.84 -99373095.066 
-68358027.176 -43517857.664 -24278956.341 -10067693.021 369505.25839 8286211.4598 14185495.171 18570425.981 21775255.251 
24134234.343 25822051.669 27013395.642 27806240.145 28298559.061 28537236.111 28569155.016 28407231.486 28064381.233 
27525021.865 26773570.99 25757082.981 24422612.21 22681983.655 20447022.291 17493513.907 13597244.291 8653275.7468 
2556670.5801 -6233995.9274 -19260148.494 -223377774 -151538761.22 -103654987.13 -71064655.702 -45105970.891 -25070560.321 
-10250051.611 641879.02006 8891555.3576 15030303.798 19589450.739 22916906.135 25360579.941 27103379.371 28328211.641 
29137369.637 29633146.25 29864584.503 29880727.421 29695150.002 29321427.243 28743342.388 27944678.677 26870603.695 
25466285.026 23639005.205 21296046.767 18208078.921 14145770.877 8981643.2797 2588216.7706 -6550213.4834 -19949352.316 
-230298970.04 -156742423.8 -107262492.85 -73333634.338 -46430305.412 -25725378.683 -10391726.765 883555.14287 9413371.8449 
15753169.215 20458393.126 23888425.542 26402648.424 28190926.255 29443123.518 30265176.507 30763021.519 30987527.416 
30989563.062 30783263.794 30382764.95 29771317.08 28932170.734 27808922.644 26345169.542 24444331.591 22009828.957 
18808236.324 14606128.377 9256177.0619 2611054.324 -6818892.1923 -20523314.843 -235805062.36 -160920113.86 -110161972.4 
-75143709.664 -47478397.342 -26237203.709 -10491297.039 1092382.3349 9846894.0811 16347443.931 21169237.616 24680835.248 
27250796.939 29074618.303 30347794.957 31179197.07 31677694.811 31895632.446 31885354.241 31661451.742 31238516.494 
30599373.013 29726845.813 28563291.515 27051066.739 25090445.073 22581700.102 19288374.033 14974009.07 9474299.3257 
2624938.9121 -7037545.631 -20976627.763 -239868193.92 -164050441.91 -112338559.2 -76485690.52 -48244980.552 -26603506.69 
-10548346.322 1267193.5742 10189806.021 16809993.202 21718257.302 25289995.943 27900606.748 29749861.198 31037530.775 
31874694.909 32372433.03 32584206.754 32563477.697 32325187.103 31884276.217 31223252.346 30324622.797 29129841.031 
27580360.511 25574040.448 23008740.055 19646044.947 15247540.741 9634908.3943 2629828.8647 -7205034.8181 -21307019.625 
-242484090.19 -166129287.31 -113789319.14 -77358055.896 -48729367.785 -26824100.799 -10563100.93 1407443.9533 10441345.982 
17139911.833 22104448.181 25714841.204 28350977.074 30215541.276 31511219.29 32350572.1 32846160.688 33052204.292 
33022922.151 32773498.105 32319115.993 31642075.124 30724674.806 29507803.034 27932347.808 25894490.319 23290411.759 
19880814.201 15426399.718 9737841.4153 2625812.3958 -7321076.5701 -21514214.712 -243681902.45 -167177042.34 -114528259.17 
-77770161.2 -48937356.694 -26902109.957 -10536685.298 1513486.0571 10602972.882 17339473.004 22330684.25 25958678.632 
28605528.163 30475495.893 31772844.871 32610903.85 33103001.579 33303761.964 33267808.911 33010463.69 32547047.574 
31859758.929 30930796.12 29700812.373 28110460.914 26054967.97 23429559.771 19995101.613 15512458.794 9784265.9599 
2613157.7541 -7386605.3658 -21600762.942 -243510448.67 -167228521.75 -114579353.75 -77737761.168 -48878560.473 -26842606.065 
-10470752.338 1586200.4634 10677452.098 17412819.879 22402121.121 26027389.298 28670657.89 30536475.361 31829390.179 
32662809.015 33150138.54 33346066.111 33305279.086 33043134.438 32574989.14 31883044.028 30949499.937 29715094.459 
28120565.186 26060882.872 23431018.269 19993006.6 15508883.087 9776132.3806 2592239.1321 -7403272.1004 -21570876.759 
-242046763.1 -166339255.42 -113980895.76 -77285794.81 -48568063.258 -26653450.332 -10367705.257 1627235.2582 10669434.506 
17366790.109 22327199.688 25930558.249 28556760.795 30409420.432 31692150.265 32517783.365 32999152.803 33190687.056 
33146814.6 32882831.961 32414035.664 31722726.639 30791205.815 29560596.204 27972020.815 25920856.075 23302478.412 
19881039.956 15420692.834 9716513.9334 2563580.1394 -7373758.4855 -21431151.879 -239377489.11 -164571835.72 -112776060.37 
-76442329.908 -48022811.194 -26343451.988 -10230200.051 1638503.3404 10584216.907 17209142.938 22115483.719 25679035.983 
28275596.465 30106702.757 31373892.451 32188816.728 32663126.769 32850691.161 32805378.487 32542334.989 32076706.906 
31390986.373 30467665.521 29248533.524 27675379.553 25644603.473 23052605.147 19666534.232 15253540.383 9608866.2243 
2527754.3813 -7301098.2981 -21188994.966 -235592069.7 -161990927.98 -111009457.14 -75236347.838 -47260290.723 -25921692.801 
-10060961.074 1622001.4372 10427291.71 16947913.863 21776872.012 25284049.56 27839329.91 29641118.345 30887820.149 
31689341.002 32155586.582 32339586.612 32294370.815 32034851.842 31575942.343 30900410.033 29991022.624 28790495.246 
27241543.026 25242162.139 22690348.761 19357062.485 15013262.91 9456756.145 2485348.3038 -7188429.8691 -20852047.629 

s_xy 1 1089 double
0.0060826688495 0.0052718496635 0.0041547382795 0.00297940425 0.0019939171278 0.0011886775618 0.00055408620095 6.3634327508e-05 -0.00030918677621 
-0.00058826307874 -0.00079748054864 -0.00095157088672 -0.0010652657938 -0.0011462518968 -0.0012022158226 -0.0012378669804 -0.0012579147797 -0.0012633957715 
-0.0012553465071 -0.0012345059537 -0.0012016130785 -0.0011554759553 -0.0010949026576 -0.0010186079411 -0.00092530656108 -0.00081453607214 -0.00068583402864 
-0.00054279330763 -0.00038900678615 -0.00023696489482 -9.9158064243e-05 -3.1191662501e-06 2.3618927327e-05 10314672.421 7575261.0509 5236293.6974 
3357737.2959 1999558.7818 1019011.3476 273348.18594 -281738.84986 -690557.90635 -986346.6195 -1202342.6253 -1355397.8688 
-1462364.2951 -1533154.14 -1577679.6392 -1601202.97 -1608986.3093 -1603642.3988 -1587783.98 -1562196.7153 -1527666.2674 
-1483409.4542 -1428643.0936 -1360980.844 -1278036.3641 -1174403.5068 -1044676.1252 -881687.30785 -678270.14321 -410466.43483 
-54317.986228 377169.83069 870991.64402 21041104.646 15452925.112 10681619.264 6849514.8387 4078939.5773 2078701.4382 
557608.38044 -574724.66213 -1408682.7556 -2012068.0122 -2452682.5441 -2764902.9679 -2983105.9004 -3127511.5076 -3218339.9558 
-3266325.6642 -3282203.0524 -3271301.9035 -3238952.0008 -3186756.0327 -3116316.6878 -3026036.3377 -2914317.3535 -2776291.79 
-2607091.702 -2395688.983 -2131055.5269 -1798571.4089 -1383616.7043 -837318.61326 -110804.33626 769396.21092 1776753.1125 
32047678.73 23536329.855 16269160.211 10432487.016 6212627.4901 3166067.4189 849292.58906 -875362.37448 -2145562.8467 
-3064578.1351 -3735677.5475 -4211220.0632 -4543564.6619 -4763508.6518 -4901849.3413 -4974936.3106 -4999119.1397 -4982515.6142 
-4933243.52 -4853743.9098 -4746457.8367 -4608951.9544 -4438792.917 -4228566.3634 -3970857.9324 -3648870.73 -3245807.8621 
-2739401.7406 -2107384.7773 -1275318.8755 -168765.93852 1171866.3538 2706170.3217 43218600.349 31740434.066 21940132.984 
14068959.278 8378175.1212 4269669.6888 1145332.1566 -1180489.1373 -2893445.8552 -4132804.0878 -5037829.9258 -5679133.2199 
-6127323.8208 -6423934.1145 -6610496.4869 -6709059.523 -6741671.8078 -6719280.7592 -6652833.7954 -6545622.8517 -6400939.8637 
-6215503.289 -5986031.5854 -5702525.9536 -5354987.5943 -4920764.6875 -4377205.4128 -3694280.3259 -2841959.9822 -1719859.253 
-227593.0096 1580346.0847 3649465.3667 54429294.17 39973747.62 27631296.309 17718378.592 10551432.823 5377201.1498 
1442425.7233 -1486702.2534 -3643991.5766 -5204833.2807 -6344618.4003 -7152272.6363 -7716721.6898 -8090271.2448 -8325226.9853 
-8449356.7915 -8490428.5437 -8462229.3665 -8378546.3848 -8243525.446 -8061312.3976 -7827774.4812 -7538778.9386 -7181733.3308 
-6744045.2187 -6197187.0109 -5512631.1155 -4652558.597 -3579150.5194 -2165982.3422 -286629.52452 1990280.1396 4596118.8563 
65519365.787 48118474.29 33261225.185 21328531.737 12701307.213 6472816.0524 1736322.6919 -1789620.6491 -4386461.7514 
-6265327.9044 -7637346.3975 -8609561.7113 -9289018.3269 -9738679.3102 -10021507.727 -10170929.216 -10220369.415 -10186424.602 
-10085691.055 -9923159.3446 -9703820.043 -9422698.3345 -9074819.4036 -8645025.078 -8118157.1854 -7459875.5835 -6635840.13 
-5600526.2093 -4308409.2061 -2607305.3403 -345030.83211 2395803.4819 5532586.7649 76313233.201 56045663.839 38740784.554 
24842261.471 14793760.71 7539168.2284 2022369.9805 -2084448.4115 -5109101.3251 -7297497.827 -8895546.9833 -10027928.121 
-10819320.567 -11343060.122 -11672482.586 -11846520.244 -11904105.378 -11864568.389 -11747239.679 -11557931.98 -11302458.029 
-10975023.442 -10569833.836 -10069233.835 -9455568.0602 -8688839.0665 -7729049.4077 -6523174.5993 -5018190.1568 -3036841.0633 
-401872.30199 2790495.7202 6444042.5961 86628375.214 63621269.765 43977316.642 28200151.633 16793410.525 8558225.9683 
2295730.6112 -2366200.0877 -5799690.67 -8283889.3512 -10097944.347 -11383387.696 -12281751.438 -12876284.061 -13250234.052 
-13447796.111 -13513164.939 -13468283.796 -13335095.945 -13120199.817 -12830193.846 -12458500.43 -11998541.971 -11430276.64 
-10733662.609 -9863296.04 -8773773.0936 -7404902.0475 -5696491.1794 -3447326.1853 -456192.76117 3167682.7221 7315073.8934 
96279307.464 70709069.377 48876659.408 31341821.463 18664299.444 9511664.8247 2551489.0799 -2629809.2883 -6445811.7775 
-9206765.4262 -11222917.273 -12651566.895 -13650013.867 -14310781.07 -14726391.383 -14945963.067 -15018614.383 -14968733.206 
-14820707.411 -14581870.537 -14259556.122 -13846453.781 -13335253.128 -12703679.554 -11929458.448 -10962127.706 -9751225.2217 
-8229853.5464 -6331115.2307 -3831379.4632 -507015.43238 3520582.0032 8130017.985 105085602.14 77176553.591 53347217.796 
34208536.261 20371450.494 10381659.899 2784863.8858 -2870347.7399 -7035385.1701 -10048872.536 -12249433.97 -13808756.628 
-14898527.671 -15619732.686 -16073357.262 -16313012.316 -16392308.766 -16337865.151 -16176300.011 -15915617.655 -15563822.391 
-15112935.182 -14554976.989 -13865635.83 -13020599.724 -11964790.992 -10643131.956 -8982606.3172 -6910197.7752 -4181820.8764 
-553390.16667 3842595.9787 8873639.1844 112872717.92 82895536.461 57300385.054 36743477.559 21881027.833 11150967.835 
2991229.5256 -3083047.9551 -7556725.4658 -10793520.065 -13157148.81 -14832021.324 -16002547.229 -16777195.407 -17264434.74 
-17521848.855 -17607021.378 -17548543.35 -17375005.815 -17095006.219 -16717142.014 -16232842.892 -15633538.549 -14893115.422 
-13985459.948 -12851413.05 -11431815.65 -9648240.7523 -7422261.3601 -4491704.6538 -594397.8139 4127342.311 9531198.8723 
119484560.28 87751379.657 60656919.034 38895831.873 23162771.635 11804167.677 3166449.3524 -3263646.309 -7999382.2783 
-11425781.381 -13927866.442 -15700849.405 -16939942.213 -17759967.624 -18275748.395 -18548241.279 -18638403.026 -18576499.48 
-18392796.487 -18096395.114 -17696396.432 -17183728.103 -16549317.794 -15765522.265 -14804698.275 -13604221.335 -12101466.956 
-10213414.056 -7857041.553 -4754819.1039 -629216.36632 4369113.1944 10089516.113 124780053.61 91640474.987 63345202.015 
40619674.833 24189333.581 12327322.225 3306784.7345 -3408289.4094 -8353910.7242 -11932166.046 -14545142.21 -16396702.852 
-17690711.607 -18547080.116 -19085720.022 -19370289.648 -19464447.316 -19399800.238 -19207955.624 -18898417.897 -18480691.482 
-17945301.961 -17282774.918 -16464241.98 -15460834.772 -14207153.321 -12637797.653 -10666067.235 -8205261.5323 -4965550.204 
-657102.90715 4562750.01 10536678.199 128648906.12 94481822.393 65309243.837 41879103.134 24939332.969 12709535.489 
3409312.8393 -3513964.7049 -8612926.8694 -12302127.344 -14996119.817 -16905088.794 -18239218.776 -19122139.313 -19677479.952 
-19970872.766 -20067949.829 -20001298.344 -19803505.515 -19484370.455 -19053692.274 -18501702.8 -17818633.857 -16974721.997 
-15940203.771 -14647651.455 -13029637.324 -10996772.662 -8459668.7533 -5119508.9563 -677476.63002 4704219.7908 10863371.871 
131003405.06 96211004.224 66504516.694 42645563.628 25395766.179 12942142.114 3471709.1995 -3578276.3764 -8770558.425 
-12527277.69 -15270574.916 -17214481.348 -18573028.232 -19472107.752 -20037612.091 -20336374.505 -20435228.246 -20367356.923 
-20165944.141 -19840968.354 -19402408.013 -18840316.17 -18144745.877 -17285388.961 -16231937.25 -14915728.977 -13268102.37 
-11198032.746 -8614495.4187 -5213204.8826 -689875.63175 4790315.2024 11062190.488 131795348.93 96792620.515 66906550.855 
42903365.266 25549289.068 13020380.157 3492696.4311 -3599907.8295 -8823578.3441 -12603007.788 -15362888.838 -17318546.604 
-18685306.197 -19589820.847 -20158743.782 -20459312.279 -20558763.613 -20490481.992 -20287851.627 -19960911.291 -19519699.758 
-18954209.949 -18254434.783 -17389882.868 -16330062.815 -15005897.778 -13348310.913 -11265727.271 -8666571.9032 -5244719.8316 
-694046.07888 4819273.6919 11129063.818 131003405.06 96211004.224 66504516.694 42645563.628 25395766.179 12942142.114 
3471709.1995 -3578276.3764 -8770558.425 -12527277.69 -15270574.916 -17214481.348 -18573028.232 -19472107.752 -20037612.091 
-20336374.505 -20435228.246 -20367356.923 -20165944.141 -19840968.354 -19402408.013 -18840316.17 -18144745.877 -17285388.961 
-16231937.25 -14915728.977 -13268102.37 -11198032.746 -8614495.4187 -5213204.8826 -689875.63175 4790315.2024 11062190.488 
128648906.12 94481822.393 65309243.837 41879103.134 24939332.969 12709535.489 3409312.8393 -3513964.7049 -8612926.8694 
-12302127.344 -14996119.817 -16905088.794 -18239218.776 -19122139.313 -19677479.952 -19970872.766 -20067949.829 -20001298.344 
-19803505.515 -19484370.455 -19053692.274 -18501702.8 -17818633.857 -16974721.997 -15940203.771 -14647651.455 -13029637.324 
-10996772.662 -8459668.7533 -5119508.9563 -677476.63002 4704219.7908 10863371.871 124780053.61 91640474.987 63345202.015 
40619674.833 24189333.581 12327322.225 3306784.7345 -3408289.4094 -8353910.7242 -11932166.046 -14545142.21 -16396702.852 
-17690711.607 -18547080.116 -19085720.022 -19370289.648 -19464447.316 -19399800.238 -19207955.624 -18898417.897 -18480691.482 
-17945301.961 -17282774.918 -16464241.98 -15460834.772 -14207153.321 -12637797.653 -10666067.235 -8205261.5323 -4965550.204 
-657102.90715 4562750.01 10536678.199 119484560.28 87751379.657 60656919.034 38895831.873 23162771.635 11804167.677 
3166449.3524 -3263646.309 -7999382.2783 -11425781.381 -13927866.442 -15700849.405 -16939942.213 -17759967.624 -18275748.395 
-18548241.279 -18638403.026 -18576499.48 -18392796.487 -18096395.114 -17696396.432 -17183728.103 -16549317.794 -15765522.265 
-14804698.275 -13604221.335 -12101466.956 -10213414.056 -7857041.553 -4754819.1039 -629216.36632 4369113.1944 10089516.113 
112872717.92 82895536.461 57300385.054 36743477.559 21881027.833 11150967.835 2991229.5256 -3083047.9551 -7556725.4658 
-10793520.065 -13157148.81 -14832021.324 -16002547.229 -16777195.407 -17264434.74 -17521848.855 -17607021.378 -17548543.35 
-17375005.815 -17095006.219 -16717142.014 -16232842.892 -15633538.549 -14893115.422 -13985459.948 -12851413.05 -11431815.65 
-9648240.7523 -7422261.3601 -4491704.6538 -594397.8139 4127342.311 9531198.8723 105085602.14 77176553.591 53347217.796 
34208536.261 20371450.494 10381659.899 2784863.8858 -2870347.7399 -7035385.1701 -10048872.536 -12249433.97 -13808756.628 
-14898527.671 -15619732.686 -16073357.262 -16313012.316 -16392308.766 -16337865.151 -16176300.011 -15915617.655 -15563822.391 
-15112935.182 -14554976.989 -13865635.83 -13020599.724 -11964790.992 -10643131.956 -8982606.3172 -6910197.7752 -4181820.8764 
-553390.16667 3842595.9787 8873639.1844 96279307.464 70709069.377 48876659.408 31341821.463 18664299.444 9511664.8247 
2551489.0799 -2629809.2883 -6445811.7775 -9206765.4262 -11222917.273 -12651566.895 -13650013.867 -14310781.07 -14726391.383 
-14945963.067 -15018614.383 -14968733.206 -14820707.411 -14581870.537 -14259556.122 -13846453.781 -13335253.128 -12703679.554 
-11929458.448 -10962127.706 -9751225.2217 -8229853.5464 -6331115.2307 -3831379.4632 -507015.43238 3520582.0032 8130017.985 
86628375.214 63621269.765 43977316.642 28200151.633 16793410.525 8558225.9683 2295730.6112 -2366200.0877 -5799690.67 
-8283889.3512 -10097944.347 -11383387.696 -12281751.438 -12876284.061 -13250234.052 -13447796.111 -13513164.939 -13468283.796 
-13335095.945 -13120199.817 -12830193.846 -12458500.43 -11998541.971 -11430276.64 -10733662.609 -9863296.04 -8773773.0936 
-7404902.0475 -5696491.1794 -3447326.1853 -456192.76117 3167682.7221 7315073.8934 76313233.201 56045663.839 38740784.554 
24842261.471 14793760.71 7539168.2284 2022369.9805 -2084448.4115 -5109101.3251 -7297497.827 -8895546.9833 -10027928.121 
-10819320.567 -11343060.122 -11672482.586 -11846520.244 -11904105.378 -11864568.389 -11747239.679 -11557931.98 -11302458.029 
-10975023.442 -10569833.836 -10069233.835 -9455568.0602 -8688839.0665 -7729049.4077 -6523174.5993 -5018190.1568 -3036841.0633 
-401872.30199 2790495.7202 6444042.5961 65519365.787 48118474.29 33261225.185 21328531.737 12701307.213 6472816.0524 
1736322.6919 -1789620.6491 -4386461.7514 -6265327.9044 -7637346.3975 -8609561.7113 -9289018.3269 -9738679.3102 -10021507.727 
-10170929.216 -10220369.415 -10186424.602 -10085691.055 -9923159.3446 -9703820.043 -9422698.3345 -9074819.4036 -8645025.078 
-8118157.1854 -7459875.5835 -6635840.13 -5600526.2093 -4308409.2061 -2607305.3403 -345030.83211 2395803.4819 5532586.7649 
54429294.17 39973747.62 27631296.309 17718378.592 10551432.823 5377201.1498 1442425.7233 -1486702.2534 -3643991.5766 
-5204833.2807 -6344618.4003 -7152272.6363 -7716721.6898 -8090271.2448 -8325226.9853 -8449356.7915 -8490428.5437 -8462229.3665 
-8378546.3848 -8243525.446 -8061312.3976 -7827774.4812 -7538778.9386 -7181733.3308 -6744045.2187 -6197187.0109 -5512631.1155 
-4652558.597 -3579150.5194 -2165982.3422 -286629.52453 1990280.1396 4596118.8563 43218600.349 31740434.066 21940132.984 
14068959.278 8378175.1212 4269669.6888 1145332.1566 -1180489.1373 -2893445.8552 -4132804.0878 -5037829.9258 -5679133.2199 
-6127323.8208 -6423934.1145 -6610496.4869 -6709059.523 -6741671.8078 -6719280.7593 -6652833.7954 -6545622.8517 -6400939.8637 
-6215503.289 -5986031.5854 -5702525.9536 -5354987.5944 -4920764.6875 -4377205.4128 -3694280.3259 -2841959.9822 -1719859.253 
-227593.0096 1580346.0847 3649465.3667 32047678.73 23536329.855 16269160.211 10432487.016 6212627.4901 3166067.4189 
849292.58906 -875362.37448 -2145562.8467 -3064578.1351 -3735677.5475 -4211220.0632 -4543564.6619 -4763508.6518 -4901849.3414 
-4974936.3106 -4999119.1397 -4982515.6142 -4933243.52 -4853743.9098 -4746457.8367 -4608951.9544 -4438792.917 -4228566.3634 
-3970857.9324 -3648870.73 -3245807.8621 -2739401.7406 -2107384.7773 -1275318.8755 -168765.93852 1171866.3538 2706170.3217 
21041104.646 15452925.112 10681619.264 6849514.8387 4078939.5773 2078701.4382 557608.38044 -574724.66213 -1408682.7556 
-2012068.0122 -2452682.5441 -2764902.9679 -2983105.9004 -3127511.5076 -3218339.9558 -3266325.6642 -3282203.0524 -3271301.9036 
-3238952.0008 -3186756.0327 -3116316.6878 -3026036.3377 -2914317.3535 -2776291.79 -2607091.702 -2395688.983 -2131055.5269 
-1798571.4089 -1383616.7043 -837318.61326 -110804.33627 769396.21091 1776753.1125 10314672.421 7575261.0509 5236293.6974 
3357737.2959 1999558.7818 1019011.3476 273348.18594 -281738.84986 -690557.90635 -986346.6195 -1202342.6253 -1355397.8688 
-1462364.2951 -1533154.14 -1577679.6392 -1601202.97 -1608986.3093 -1603642.3988 -1587783.98 -1562196.7153 -1527666.2674 
-1483409.4542 -1428643.0936 -1360980.844 -1278036.3641 -1174403.5068 -1044676.1252 -881687.30785 -678270.14321 -410466.43483 
-54317.986228 377169.83069 870991.64402 0.0060774699921 0.0052692142183 0.0041523394037 0.0029766603845 0.001991991997 0.0011877101199 
0.00055319063197 6.2583485403e-05 -0.00030996136763 -0.00058882185986 -0.00079837592399 -0.00095254666868 -0.0010652572026 -0.001145334495 -0.0012016055153 
-0.0012376084399 -0.0012568814452 -0.001261636028 -0.0012540836853 -0.001234180693 -0.0012018833274 -0.0011560097164 -0.0010953779878 -0.0010189165217 
-0.00092555369803 -0.00081469453246 -0.00068574404054 -0.00054242634689 -0.00038846557614 -0.00023648117385 -9.90925856e-05 -3.2526065175e-06 2.4085968263e-05 

s_yy 1 1089 double
-235592069.7 -161990927.98 -111009457.14 -75236347.838 -47260290.723 -25921692.801 -10060961.074 1622001.4372 10427291.71 
16947913.863 21776872.012 25284049.56 27839329.91 29641118.345 30887820.149 31689341.002 32155586.582 32339586.612 
32294370.815 32034851.842 31575942.343 30900410.033 29991022.624 28790495.246 27241543.026 25242162.139 22690348.761 
19357062.485 15013262.91 9456756.145 2485348.3038 -7188429.8691 -20852047.629 -239377489.11 -164571835.72 -112776060.37 
-76442329.908 -48022811.194 -26343451.988 -10230200.051 1638503.3404 10584216.907 17209142.938 22115483.719 25679035.983 
28275596.465 30106702.757 31373892.451 32188816.728 32663126.769 32850691.161 32805378.487 32542334.989 32076706.906 
31390986.373 30467665.521 29248533.524 27675379.553 25644603.473 23052605.147 19666534.232 15253540.383 9608866.2243 
2527754.3813 -7301098.2981 -21188994.966 -242046763.1 -166339255.42 -113980895.76 -77285794.81 -48568063.258 -26653450.332 
-10367705.257 1627235.2583 10669434.506 17366790.109 22327199.688 25930558.249 28556760.795 30409420.432 31692150.265 
32517783.365 32999152.803 33190687.056 33146814.6 32882831.961 32414035.664 31722726.639 30791205.815 29560596.204 
27972020.815 25920856.075 23302478.412 19881039.956 15420692.834 9716513.9334 2563580.1394 -7373758.4855 -21431151.879 
-243510448.67 -167228521.75 -114579353.75 -77737761.168 -48878560.473 -26842606.065 -10470752.338 1586200.4635 10677452.098 
17412819.879 22402121.121 26027389.298 28670657.89 30536475.361 31829390.179 32662809.015 33150138.54 33346066.111 
33305279.086 33043134.438 32574989.14 31883044.028 30949499.937 29715094.459 28120565.186 26060882.872 23431018.269 
19993006.6 15508883.087 9776132.3806 2592239.1321 -7403272.1004 -21570876.759 -243681902.45 -167177042.34 -114528259.17 
-77770161.2 -48937356.694 -26902109.957 -10536685.298 1513486.0571 10602972.882 17339473.004 22330684.25 25958678.632 
28605528.163 30475495.893 31772844.871 32610903.85 33103001.579 33303761.964 33267808.911 33010463.69 32547047.574 
31859758.929 30930796.12 29700812.373 28110460.914 26054967.97 23429559.771 19995101.613 15512458.794 9784265.9599 
2613157.7541 -7386605.3658 -21600762.942 -242484090.19 -166129287.31 -113789319.14 -77358055.896 -48729367.785 -26824100.799 
-10563100.93 1407443.9533 10441345.982 17139911.833 22104448.181 25714841.204 28350977.074 30215541.276 31511219.29 
32350572.1 32846160.688 33052204.292 33022922.151 32773498.105 32319115.993 31642075.124 30724674.806 29507803.034 
27932347.808 25894490.319 23290411.759 19880814.201 15426399.718 9737841.4153 2625812.3958 -7321076.5701 -21514214.712 
-239868193.92 -164050441.91 -112338559.2 -76485690.52 -48244980.552 -26603506.69 -10548346.322 1267193.5742 10189806.021 
16809993.202 21718257.302 25289995.943 27900606.748 29749861.198 31037530.775 31874694.909 32372433.03 32584206.754 
32563477.697 32325187.103 31884276.217 31223252.346 30324622.797 29129841.031 27580360.511 25574040.448 23008740.055 
19646044.947 15247540.741 9634908.3942 2629828.8647 -7205034.8181 -21307019.625 -235805062.36 -160920113.86 -110161972.4 
-75143709.664 -47478397.342 -26237203.709 -10491297.039 1092382.3349 9846894.0811 16347443.931 21169237.616 24680835.248 
27250796.939 29074618.303 30347794.957 31179197.07 31677694.811 31895632.446 31885354.241 31661451.742 31238516.494 
30599373.013 29726845.813 28563291.515 27051066.739 25090445.073 22581700.102 19288374.033 14974009.07 9474299.3257 
2624938.9121 -7037545.631 -20976627.763 -230298970.04 -156742423.8 -107262492.85 -73333634.338 -46430305.411 -25725378.683 
-10391726.765 883555.14287 9413371.8449 15753169.215 20458393.126 23888425.542 26402648.424 28190926.255 29443123.518 
30265176.507 30763021.519 30987527.416 30989563.062 30783263.794 30382764.95 29771317.08 28932170.734 27808922.644 
26345169.542 24444331.591 22009828.957 18808236.324 14606128.377 9256177.0619 2611054.324 -6818892.1923 -20523314.843 
-223377774 -151538761.22 -103654987.13 -71064655.702 -45105970.891 -25070560.321 -10250051.611 641879.02006 8891555.3576 
15030303.798 19589450.739 22916906.135 25360579.941 27103379.371 28328211.641 29137369.637 29633146.25 29864584.503 
29880727.421 29695150.002 29321427.243 28743342.388 27944678.677 26870603.695 25466285.026 23639005.205 21296046.767 
18208078.921 14145770.877 8981643.2797 2588216.7706 -6550213.4834 -19949352.316 -215106412.01 -145357682.84 -99373095.066 
-68358027.176 -43517857.664 -24278956.341 -10067693.021 369505.25839 8286211.4598 14185495.171 18570425.981 21775255.251 
24134234.343 25822051.669 27013395.642 27806240.145 28298559.061 28537236.111 28569155.016 28407231.486 28064381.233 
27525021.865 26773570.99 25757082.981 24422612.21 22681983.655 20447022.291 17493513.907 13597244.291 8653275.7468 
2556670.5801 -6233995.9274 -19260148.494 -205574785.6 -138265999.04 -94463067.047 -65243118.061 -41683280.523 -23359259.917 
-9846761.728 69232.061777 7603739.4685 13227737.463 17412203.016 20475690.259 22736753.327 24360688.68 25512792.78 
26286091.505 26773610.733 27019764.66 27068967.481 26933383.739 26625177.974 26129496.961 25431487.476 24480386.016 
23225429.078 21583615.503 19471944.132 16672281.571 12966494.422 8274646.2409 2516800.5826 -5873628.421 -18463226.638 
-194908387.28 -130356564.79 -88989148.223 -61760871.192 -39626467.322 -22323702.892 -9590344.183 -255211.2271 6852875.9426 
12169380.665 16129766.278 19035057.019 21186277.124 22738280.305 23845920.277 24596710.578 25078164.745 25331949.432 
25399731.297 25292841.576 25022611.504 24575002.257 23935975.008 23057214.855 21890406.894 20358288.136 18383595.594 
15755157.824 12261803.382 7850743.5567 2469189.6381 -5473789.1408 -17569123.546 -183255164.15 -121738619.44 -83026899.882 
-57959524.976 -37376014.229 -21186761.041 -9302158.8095 -599528.46049 6043809.0811 11024868.053 14740662.692 17473097.18 
19504075.699 20977102.075 22035680.137 22761322.767 23235542.851 23497019.316 23584431.089 23508205.396 23278769.464 
22882972.831 22307665.032 21507212.16 20435980.308 19022930.279 17197022.88 14754830.422 11492925.216 7387450.8443 
2414550.887 -5039963.5576 -16590281.391 -170791549.22 -112542205.18 -76666252.701 -53896575.313 -34966056.526 -19965752.564 
-8986719.6525 -958696.75325 5188577.1732 9811307.3582 13265699.033 15813235.057 17715398.29 19103606.265 20109276.519 
20807523.416 21273461.321 21542586.216 21650394.084 21606351.004 21419923.055 21078908.675 20571106.303 19853754.722 
18884092.713 17597697.118 15930144.777 13686413.736 10671482.037 6891785.7036 2353760.7555 -4578663.554 -15541557.972 
-157710042.81 -102909037.58 -70005195.36 -49634731.78 -32433862.485 -18679613.385 -8649010.3931 -1327309.6215 4300232.8167 
8547278.6736 11727489.701 14080941.135 15847708.211 17146571.62 18096312.054 18765346.015 19222090.003 19498710.809 
19627375.22 19616545.786 19474685.055 19190586.272 18753042.681 18122312.996 17258655.934 16104555.059 14602493.936 
12566386.581 9810147.0086 6371406.0595 2287794.575 -4096972.1566 -14439178.847 -144219616.45 -92992795.625 -63149974.388 
-45242048.227 -29819912.633 -17348938.661 -8294497.3661 -1699568.8661 3392866.7213 7252869.6947 10150500.353 12303781.702 
13930736.749 15137160.134 16028846.497 16667321.937 17114112.552 17397962.742 17547616.913 17570507.675 17474067.64 
17248114.88 16882467.469 16340503.004 15585599.087 14567326.762 13235257.074 11412626.275 8922670.6169 5834626.2849 
2217729.4631 -3602557.4412 -13300772.021 -130536005.7 -82951988.389 -56210163.056 -40788762.256 -27166018.551 -15995024.767 
-7928873.7327 -2069551.5121 2480955.8289 5948745.3856 8559914.2531 10510141.164 11995104.851 13107472.19 13939910.055 
14546971.727 14983210.483 15273909.838 15444353.304 15500933.599 15450043.443 15282539.374 14989277.932 14536804.658 
13891665.091 13010585.306 11850291.381 10243578.58 8023242.1712 5290030.9388 2144693.6685 -3103317.0449 -12144548.607 
-116876495.65 -72946124.105 -49296013.135 -36345597.561 -24514312.21 -14639354.482 -7557921.772 -2431352.8453 1579013.5351 
4655648.6369 6981023.7277 8728536.1237 10071583.141 11089770.807 11862705.15 12437995.003 12863249.195 13160306.845 
13351007.07 13440709.269 13434772.844 13325089.946 13103552.726 12739873.435 12203764.32 11459060.29 10469596.253 
9077811.8818 7126146.847 4746267.2691 2069839.2679 -2607187.3114 -10988862.624 -103454675.44 -63131859.165 -42515793.083 
-31982056.549 -21906228.911 -13303078.436 -7187373.3912 -2779229.083 701239.18206 3393899.3661 5438619.4312 6986926.8105 
8190348.9371 9115702.6404 9829804.7498 10373456.793 10787460.298 11090280.457 11300382.464 11422115.189 11459827.5 
11406428.102 11254825.697 10977848.546 10548324.909 9937040.7848 9114782.1715 7933568.904 6245420.8171 4211836.4611 
1994314.386 -2121951.6629 -9851767.9402 -90470639.352 -53655805.736 -35970816.772 -27763231.035 -19380607.105 -12006046.071 
-6822649.022 -3107863.233 -139135.97938 2182459.5686 3955850.2408 5311431.5688 6379599.0839 7214843.4894 7871655.4881 
8384268.2117 8786914.7918 9094807.4486 9323158.402 9475343.9264 9554740.296 9555238.5321 9470729.656 9277060.8631 
8950079.3488 8467260.248 7806078.6952 6827929.4002 5394207.0723 3694703.6645 1919211.1295 -1654882.8201 -8750190.4718 
-78111241.495 -44654725.541 -29755578.008 -23749886.049 -16973736.821 -10766829.198 -6468862.0584 -3412355.2185 -929828.49603 
1038961.0588 2554256.3959 3726363.7696 4665589.4346 5414739.4187 6016619.7496 6499228.9615 6890565.5882 7202756.878 
7447930.079 7628540.9088 7747045.0851 7798267.5545 7777033.2631 7662067.9183 7432097.2272 7070926.4816 6562360.9735 
5776832.4014 4584772.4639 3202308.0815 1845566.1748 -1212752.9818 -7699949.114 -66537476.111 -36246270.716 -23951351.079 
-19994352.918 -14716911.949 -9601473.1014 -6130481.3032 -3688562.6472 -1660343.2261 -21496.741371 1252303.1056 2252578.1506 
3070850.2294 3739035.3753 4289049.6214 4743072.2912 5123282.7078 5438931.5765 5699269.6025 5905896.0881 6060410.3358 
6158510.6346 6195895.2735 6153990.6542 6014223.1782 5766286.0727 5399872.5651 4793998.1313 3827678.247 2741060.7041 
1774293.2941 -801373.53165 -6714689.3219 -55890262.867 -28533243.664 -18629136.277 -16542414.012 -12637550.176 -8524065.4383 
-5811480.4696 -3932937.9791 -2321580.6763 -985788.00222 66060.602201 908236.70315 1615011.8669 2208340.4799 2710176.9287 
3137367.9605 3506760.3227 3824971.8854 4098620.5188 4328523.795 4515499.2863 4656047.383 4746668.4755 4771279.066 
4713795.6566 4569284.6749 4332812.5484 3891423.3092 3132160.9894 2316574.4564 1706212.5777 -425808.0115 -5806370.6757 
-46277028.047 -21593754.723 -13842857.629 -13428936.193 -10756589.843 -7545407.5264 -5514978.1907 -4142889.5321 -2906729.2471 
-1844037.2656 -992353.51743 -292948.11479 312908.83011 838239.64718 1296066.6663 1698444.7664 2057428.8263 2377274.3274 
2662236.7511 2912434.5912 3127986.3415 3306115.1424 3444044.1343 3527944.2747 3543986.521 3492040.9902 3371977.7989 
3078235.0206 2505250.7284 1933130.1071 1641978.3414 -89883.080661 -4984132.6713 -37782022.321 -15488813.564 -9634611.5593 
-10681231.382 -9090488.1085 -6674030.3337 -5243506.6519 -4316493.6084 -3410567.7484 -2588625.7878 -1913564.4422 -1340350.4425 
-823950.51908 -359166.04115 59201.622273 438998.36412 788070.07733 1108601.1204 1402775.852 1670102.5186 1910089.3669 
2120596.5903 2299484.3824 2434922.801 2515081.9039 2544023.5132 2525809.451 2361573.651 1952450.047 1594086.7564 
1582131.8966 203432.4082 -4255164.7684 -30453876.89 -10253204.873 -6028361.1117 -8315007.6487 -7648806.5265 -5914961.6063 
-4998676.7497 -4452828.002 -3830291.4087 -3215374.0819 -2692383.1333 -2228058.6669 -1789140.7864 -1377101.8306 -993414.13834 
-633833.97806 -294117.61817 26151.20047 327388.73701 608585.27048 868731.07991 1106234.0778 1319502.1767 1498437.6941 
1632942.9477 1730635.8041 1799134.1301 1745530.2352 1476916.429 1301386.5326 1527034.3672 452480.54194 -3623654.3343 
-24318767.168 -5905170.9572 -3036630.2285 -6338656.3625 -6436760.7402 -5271022.7429 -4781521.7522 -4551605.8988 -4164623.3134 
-3722275.5483 -3326264.1561 -2953137.9399 -2579445.7028 -2212155.3603 -1858234.828 -1516423.2722 -1185459.8593 -866387.36709 
-560248.57321 -268477.16256 7493.1799585 266526.82265 507488.13381 721738.54711 900639.49617 1054717.423 1194498.7697 
1232272.7365 1080328.524 1056078.3218 1476934.3192 656431.06065 -3091896.9095 -19370236.318 -2438952.9175 -655349.24105 
-4749941.4145 -5453245.5638 -4741819.8531 -4592222.4467 -4613447.3267 -4414488.4755 -4110462.0529 -3816484.2192 -3516959.7369 
-3196293.3685 -2865781.9987 -2536722.5121 -2210221.9519 -1887387.3611 -1570413.7398 -1261496.0884 -962398.82324 -674886.36099 
-399728.58997 -137695.39859 103761.85683 317191.81995 515387.40241 711141.51585 821177.22966 762217.61323 857912.69058 
1431912.4857 815651.54365 -2659435.5906 -15582630.934 165327.48068 1129313.1542 -3540374.8531 -4693437.4817 -4325067.6269 
-4430458.1846 -4639505.8476 -4582107.309 -4382911.8021 -4166568.56 -3923428.8905 -3643844.1013 -3342300.7252 -3033285.2948 
-2719671.7638 -2404334.0858 -2090319.7927 -1780676.4163 -1477408.1118 -1182519.0342 -896502.03173 -619849.95226 -359093.17472 
-120762.07801 109576.07959 346354.0398 509977.39547 520851.73945 705876.44522 1391950.8862 931214.24234 -2324194.3067 
-12902245.036 1948158.0633 2345434.9933 -2692335.8037 -4147075.8855 -4015711.1361 -4295167.4396 -4631704.4642 -4671581.8782 
-4545289.258 -4383316.1801 -4180140.2506 -3930239.0756 -3650203.778 -3356625.4808 -3053572.4554 -2745112.9732 -2434861.6407 
-2126433.0641 -1821984.5223 -1523673.2941 -1231799.7501 -946664.26079 -674130.29861 -420061.33583 -168981.25688 94586.053848 
294008.49184 352653.9526 597840.11075 1356884.6409 1005218.1367 -2081728.8083 -11265643.554 2957166.4827 3026029.1486 
-2185036.9858 -3802013.3501 -3807733.0007 -4185028.9943 -4592229.5771 -4687662.9953 -4604186.5129 -4474657.394 -4295964.3515 
-4064996.0984 -3799426.8892 -3516930.9784 -3222231.6943 -2920052.3652 -2614305.9098 -2308905.2464 -2006079.2803 -1708056.9167 
-1415025.7334 -1127173.3081 -849935.86335 -588749.62195 -327656.2785 -50697.52763 167774.52454 253407.77191 531287.00863 
1326497.0288 1040117.2688 -1926772.8352 -10606215.52 3242295.9685 3205707.6342 -1996659.4836 -3645484.3454 -3694798.0323 
-4098631.6252 -4523346.9722 -4635305.9213 -4566490.8225 -4448884.0259 -4280180.3812 -4058074.7378 -3800369.6313 -3524867.5972 
-3236442.6963 -2939968.9894 -2639406.434 -2338714.9876 -2040119.0396 -1745842.9791 -1456036.1571 -1170847.9243 -895511.7579 
-635261.13488 -374179.84036 -96351.659409 125509.21914 218688.60646 503573.95085 1300552.7006 1038479.6306 -1853790.4844 

s_zz 1 1089 double
-313859485.57 -228676888.78 -168796201.62 -126224834.05 -92970196.049 -67552669.701 -48492637.101 -34303711.633 -23499506.682 
-15381483.277 -9251102.4475 -4678186.2077 -1232556.5731 1318010.0537 3205737.2701 4558753.2568 5505186.1944 6106432.7307 
6423889.5134 6473627.4406 6271717.4104 5795263.9502 5021371.5874 3878489.08 2295065.1864 142020.64207 -2709723.8173 
-6537962.9668 -11620491.581 -18242690.938 -26689942.315 -38400283.288 -54811751.434 -319525883.81 -232805406.1 -171843637 
-128503688.8 -94648673.777 -68772261.101 -49368119.942 -34923028.559 -23923765.212 -15659179.553 -9418121.2357 -4762645.8707 
-1254809.0682 1341805.3186 3263613.4365 4641056.6837 5604576.4586 6216677.8599 6539865.9862 6590501.8786 6384946.5783 
5899891.2591 5112027.0951 3948511.0632 2336500.1401 144584.67311 -2758644.9907 -6655998.9146 -11830287.162 -18572043.265 
-27171800.756 -39093559.445 -55801319.143 -325015117.27 -236804841.79 -174795791.71 -130711293.2 -96274672.459 -69953720.931 
-50216230.061 -35522982.01 -24334758.933 -15928193.415 -9579918.0374 -4844464.8289 -1276365.8189 1364856.6052 3319680.0559 
4720786.8244 5700859.2018 6323476.0813 6652216.3559 6703722.1379 6494635.5397 6001247.306 5199848.1811 4016343.7493 
2376639.5947 147068.53754 -2806036.6018 -6770344.3678 -12033523.305 -18891098.11 -27638593.48 -39765159.729 -56759947.171 
-330298079.07 -240653988.7 -177637011.83 -132835941.36 -97839570.185 -71090784.459 -51032470.327 -36100390.712 -24730308.541 
-16187098.411 -9735634.9207 -4923209.2359 -1297112.5211 1387041.682 3373639.832 4797520.9059 5793523.8807 6426261.0931 
6760344.8801 6812687.8634 6600202.6648 6098794.6466 5284369.1708 4081627.4532 2415270.7093 149459.0648 -2851647.3546 
-6880393.0049 -12229122.342 -19198163.672 -28087845.302 -40411522.956 -57682552.358 -335345182.75 -244331290.23 -180351385.52 
-134865734.48 -99334602.962 -72177083.722 -51812269.499 -36652020.971 -25108198.814 -16434444.578 -9884399.8152 -4998438.0945 
-1316932.9858 1408236.3046 3425190.5708 4870829.19 5882051.5396 6524457.2621 6863646.0001 6916788.8078 6701056.7396 
6191986.9806 5365116.7161 4143996.5624 2452177.1356 151742.86688 -2895221.8127 -6985528.5142 -12415988.849 -19491520.275 
-28517040.252 -41029029.26 -58563967.784 -340126688.88 -247815078.34 -182922918.67 -136788712.26 -100750961.5 -73206217.837 
-52551032.71 -37174622.374 -25466203.081 -16668774.461 -10025336.142 -5069708.1278 -1335710.4231 1428315.5867 3474028.5161 
4940279.7168 5965920.5406 6617485.9799 6961511.0272 7015411.5696 6796603.4941 6280275.1839 5441615.0223 4203083.5747 
2487141.407 153906.48657 -2936503.2193 -7085131.3984 -12593021.739 -19769439.352 -28923649.351 -41614040.064 -59398999.82 
-344613066.69 -251083837.03 -185335729.4 -138592998.32 -102079898.31 -74171830.833 -53244197.33 -37664967.313 -25802110.295 
-16888640.829 -10157573.473 -5136579.1696 -1353328.8629 1447155.5178 3519852.0429 5005443.5573 6044612.9055 6704772.6975 
7053335.5432 7107947.0506 6886252.8279 6363113.9852 5513391.6327 4258523.5665 2519947.5829 155936.56136 -2975236.6188 
-7178586.506 -12759127.649 -20030204.464 -29305161.366 -42162942.317 -60182491.276 -348775384.76 -254116486.96 -187574258.15 
-140266957.31 -103312843.45 -75067695.738 -53887293.331 -38119893.692 -26113754.282 -17092625.825 -10280259.046 -5198619.987 
-1369674.6888 1464634.6042 3562365.6479 5065900.4877 6117621.169 6785754.527 7138527.3971 7193798.5152 6969426.6173 
6439969.1801 5579983.6801 4309959.0208 2550384.1055 157820.00001 -3011172.2299 -7265291.1707 -12913235.409 -20272134.008 
-29659116.032 -42672196.301 -60909389.632 -352585723.35 -256892685.91 -189623489.44 -141799360.75 -104441526.64 -75887803.32 
-54476006.99 -38536349.979 -26399044.614 -17279361.17 -10392569.919 -5255414.426 -1384638.2572 1480635.6007 3601284.1607 
5121244.9785 6184455.6103 6859888.263 7216515.1438 7272390.0938 7045566.9538 6510325.2434 5640944.482 4357044.9216 
2578246.8143 159544.16885 -3044069.0059 -7344663.7998 -13054311.302 -20493605.183 -29983139.112 -43138386.069 -61574819.038 
-356017599.02 -259393138.14 -191469180.28 -143179557.81 -105458103.07 -76626453.495 -55006246.506 -38911441.633 -26655998.408 
-17447548.976 -10493725.483 -5306567.7421 -1398115.5651 1495047.294 3636337.0817 5171092.3629 6244651.7027 6926658.6457 
7286756.7366 7343175.5426 7114144.6308 6573693.1717 5695850.3357 4399454.0025 2603342.052 161097.08412 -3073698.3008 
-7416152.7211 -13181374.795 -20693078.674 -30274978.511 -43558271.414 -62174154.49 -359046391.25 -261599905.23 -193098089.55 
-144397646.84 -106355279.74 -77278347.131 -55474207.9 -39242477.717 -26882772.256 -17595982.652 -10583000.043 -5351712.9573 
-1410009.9252 1507766.2934 3667272.9386 5215085.0319 6297777.5948 6985586.6592 7348748.2568 7405647.0414 7174667.6668 
6629618.3587 5744307.3425 4436882.0177 2625489.7834 162467.6051 -3099847.5518 -7479245.0677 -13293514.323 -20869123.443 
-30532540.553 -43928840.044 -62703096.308 -361649759.05 -263496709.62 -194498202.07 -145444642.97 -107126438.89 -77838675.727 
-55876439.394 -39527016.444 -27077693.428 -17723567.32 -10659735.089 -5390517.0715 -1420233.6025 1518698.781 3693863.5422 
5252898.4865 6343441.4193 7036237.6386 7402032.4424 7459343.7879 7226689.6317 6677688.2888 5785958.0738 4469052.8905 
2644526.6425 163645.6226 -3122323.8765 -7533475.4575 -13389902.723 -21020440.948 -30753925.407 -44247358.571 -63157742.91 
-363808035.51 -265069222.06 -195658940.83 -146312636.77 -107765754.87 -78303206.333 -56209902.367 -39762908.289 -27239289.411 
-17829339.153 -10723350.935 -5422686.9426 -1428709.3631 1527762.1683 3715908.0163 5284247.0686 6381298.2129 7078228.9456 
7446206.763 7503860.1347 7269817.5303 6717539.8222 5820487.8828 4495723.5889 2660308.817 164622.23738 -3140957.4798 
-7578434.212 -13469811.837 -21145888.074 -30937460.641 -44511420.775 -63534659.709 -365504587.83 -266305323.96 -196571360.56 
-146994939.03 -108268300.79 -78668359.032 -56472026.979 -39948335.349 -27366314.862 -17912483.02 -10773357.323 -5447974.6526 
-1435371.8882 1534886.6081 3733236.4746 5308889.1895 6411056.2315 7111236.9733 7480930.7881 7538853.0157 7303718.9964 
6748865.8421 5847630.6649 4516688.5746 2672714.6812 165389.92311 -3155604.7612 -7613774.8557 -13532625.844 -21244498.06 
-31081731.838 -44718991.655 -63830941.99 -366726130.92 -267195335.84 -197228316.43 -147486206.88 -108630141.37 -78931274.447 
-56660760.628 -40081845.61 -27457775.089 -17972347.849 -10809362.672 -5466182.1827 -1440169.0061 1540016.3115 3745713.2241 
5326631.8858 6432482.4507 7135003.2478 7505932.6064 7564048.4144 7328128.5599 6771421.0458 5867173.8746 4531783.6785 
2681647.0893 165942.66834 -3166151.0233 -7639220.6486 -13577852.87 -21315498.728 -31185609.261 -44868445.798 -64044269.67 
-367462983.83 -267732204.22 -197624601.96 -147782546.93 -108848408.98 -79089868.926 -56774607.564 -40162380.98 -27512945.256 
-18008459.202 -10831081.633 -5477165.235 -1443062.6988 1543110.6247 3753239.3846 5337334.5435 6445407.064 7149339.4172 
7521014.0741 7579246.6527 7342852.7708 6785026.6793 5878962.6287 4540889.2691 2687035.2504 166276.09247 -3172512.6851 
-7654569.9284 -13605134.483 -21358327.384 -31248269.663 -44958598.755 -64172952.092 -367709259.93 -267911640.1 -197757051.27 
-147881591.76 -108921359.9 -79142875.473 -56812658.278 -40189298.071 -27531384.612 -18020528.59 -10838340.694 -5480836.0669 
-1444029.8489 1544144.8276 3755754.8302 5340911.66 6449726.818 7154130.9513 7526054.707 7584326.3134 7347773.9988 
6789574.0486 5882902.7479 4543932.6028 2688836.119 166387.53179 -3174638.9239 -7659700.0712 -13614252.734 -21372641.875 
-31269212.458 -44988730.302 -64215961.225 -367462983.83 -267732204.22 -197624601.96 -147782546.93 -108848408.98 -79089868.926 
-56774607.564 -40162380.98 -27512945.256 -18008459.202 -10831081.633 -5477165.235 -1443062.6988 1543110.6247 3753239.3846 
5337334.5435 6445407.064 7149339.4172 7521014.0741 7579246.6527 7342852.7708 6785026.6793 5878962.6287 4540889.2691 
2687035.2504 166276.09247 -3172512.6851 -7654569.9284 -13605134.483 -21358327.384 -31248269.663 -44958598.755 -64172952.092 
-366726130.92 -267195335.84 -197228316.43 -147486206.88 -108630141.37 -78931274.447 -56660760.628 -40081845.61 -27457775.089 
-17972347.849 -10809362.672 -5466182.1827 -1440169.0061 1540016.3115 3745713.2241 5326631.8858 6432482.4507 7135003.2478 
7505932.6064 7564048.4144 7328128.5599 6771421.0458 5867173.8746 4531783.6785 2681647.0893 165942.66834 -3166151.0233 
-7639220.6486 -13577852.87 -21315498.728 -31185609.261 -44868445.798 -64044269.67 -365504587.83 -266305323.96 -196571360.56 
-146994939.03 -108268300.79 -78668359.032 -56472026.979 -39948335.349 -27366314.862 -17912483.02 -10773357.323 -5447974.6526 
-1435371.8882 1534886.6081 3733236.4746 5308889.1895 6411056.2315 7111236.9733 7480930.7881 7538853.0157 7303718.9964 
6748865.8421 5847630.6649 4516688.5746 2672714.6812 165389.92311 -3155604.7612 -7613774.8557 -13532625.844 -21244498.06 
-31081731.838 -44718991.655 -63830941.99 -363808035.51 -265069222.06 -195658940.83 -146312636.77 -107765754.87 -78303206.333 
-56209902.367 -39762908.289 -27239289.411 -17829339.153 -10723350.935 -5422686.9426 -1428709.3631 1527762.1683 3715908.0163 
5284247.0686 6381298.2129 7078228.9456 7446206.763 7503860.1347 7269817.5303 6717539.8222 5820487.8828 4495723.5889 
2660308.817 164622.23738 -3140957.4798 -7578434.212 -13469811.837 -21145888.074 -30937460.641 -44511420.775 -63534659.709 
-361649759.05 -263496709.62 -194498202.07 -145444642.97 -107126438.89 -77838675.727 -55876439.394 -39527016.444 -27077693.428 
-17723567.32 -10659735.089 -5390517.0715 -1420233.6025 1518698.781 3693863.5422 5252898.4865 6343441.4193 7036237.6386 
7402032.4424 7459343.7879 7226689.6317 6677688.2888 5785958.0738 4469052.8905 2644526.6425 163645.6226 -3122323.8765 
-7533475.4575 -13389902.723 -21020440.948 -30753925.407 -44247358.571 -63157742.91 -359046391.25 -261599905.23 -193098089.55 
-144397646.84 -106355279.74 -77278347.131 -55474207.9 -39242477.717 -26882772.256 -17595982.652 -10583000.043 -5351712.9573 
-1410009.9252 1507766.2934 3667272.9386 5215085.0319 6297777.5948 6985586.6592 7348748.2568 7405647.0414 7174667.6668 
6629618.3587 5744307.3425 4436882.0177 2625489.7834 162467.6051 -3099847.5518 -7479245.0677 -13293514.323 -20869123.443 
-30532540.553 -43928840.044 -62703096.308 -356017599.02 -259393138.14 -191469180.28 -143179557.81 -105458103.07 -76626453.495 
-55006246.506 -38911441.633 -26655998.408 -17447548.976 -10493725.483 -5306567.7421 -1398115.5651 1495047.294 3636337.0817 
5171092.3629 6244651.7027 6926658.6457 7286756.7366 7343175.5426 7114144.6308 6573693.1717 5695850.3357 4399454.0025 
2603342.052 161097.08412 -3073698.3008 -7416152.7211 -13181374.795 -20693078.674 -30274978.511 -43558271.414 -62174154.49 
-352585723.35 -256892685.91 -189623489.44 -141799360.75 -104441526.64 -75887803.32 -54476006.99 -38536349.979 -26399044.614 
-17279361.17 -10392569.919 -5255414.426 -1384638.2572 1480635.6007 3601284.1607 5121244.9785 6184455.6103 6859888.263 
7216515.1438 7272390.0938 7045566.9538 6510325.2434 5640944.482 4357044.9216 2578246.8143 159544.16886 -3044069.0059 
-7344663.7998 -13054311.302 -20493605.183 -29983139.112 -43138386.069 -61574819.038 -348775384.76 -254116486.96 -187574258.15 
-140266957.31 -103312843.45 -75067695.738 -53887293.331 -38119893.692 -26113754.282 -17092625.825 -10280259.046 -5198619.987 
-1369674.6888 1464634.6042 3562365.6479 5065900.4877 6117621.169 6785754.527 7138527.3971 7193798.5152 6969426.6173 
6439969.1801 5579983.6801 4309959.0208 2550384.1055 157820.00001 -3011172.2299 -7265291.1707 -12913235.409 -20272134.008 
-29659116.032 -42672196.301 -60909389.632 -344613066.69 -251083837.03 -185335729.4 -138592998.32 -102079898.31 -74171830.833 
-53244197.33 -37664967.313 -25802110.295 -16888640.829 -10157573.473 -5136579.1696 -1353328.8629 1447155.5178 3519852.0429 
5005443.5573 6044612.9055 6704772.6975 7053335.5432 7107947.0506 6886252.8279 6363113.9852 5513391.6327 4258523.5665 
2519947.5829 155936.56136 -2975236.6188 -7178586.506 -12759127.649 -20030204.464 -29305161.366 -42162942.317 -60182491.276 
-340126688.88 -247815078.34 -182922918.67 -136788712.26 -100750961.5 -73206217.837 -52551032.71 -37174622.374 -25466203.081 
-16668774.461 -10025336.142 -5069708.1278 -1335710.4231 1428315.5867 3474028.5161 4940279.7168 5965920.5406 6617485.9799 
6961511.0272 7015411.5696 6796603.4941 6280275.1839 5441615.0223 4203083.5747 2487141.407 153906.48657 -2936503.2193 
-7085131.3984 -12593021.739 -19769439.352 -28923649.351 -41614040.064 -59398999.82 -335345182.75 -244331290.23 -180351385.52 
-134865734.48 -99334602.962 -72177083.722 -51812269.499 -36652020.971 -25108198.814 -16434444.578 -9884399.8152 -4998438.0945 
-1316932.9858 1408236.3046 3425190.5708 4870829.19 5882051.5396 6524457.2621 6863646.0001 6916788.8078 6701056.7396 
6191986.9806 5365116.7161 4143996.5624 2452177.1356 151742.86689 -2895221.8127 -6985528.5142 -12415988.849 -19491520.275 
-28517040.252 -41029029.26 -58563967.784 -330298079.07 -240653988.7 -177637011.83 -132835941.36 -97839570.185 -71090784.459 
-51032470.327 -36100390.712 -24730308.541 -16187098.411 -9735634.9207 -4923209.2359 -1297112.5211 1387041.682 3373639.832 
4797520.9059 5793523.8807 6426261.0931 6760344.8801 6812687.8634 6600202.6648 6098794.6466 5284369.1708 4081627.4532 
2415270.7093 149459.0648 -2851647.3546 -6880393.0049 -12229122.342 -19198163.672 -28087845.302 -40411522.956 -57682552.358 
-325015117.27 -236804841.79 -174795791.71 -130711293.2 -96274672.459 -69953720.931 -50216230.061 -35522982.01 -24334758.933 
-15928193.415 -9579918.0374 -4844464.8289 -1276365.8189 1364856.6052 3319680.0559 4720786.8244 5700859.2018 6323476.0813 
6652216.3559 6703722.1379 6494635.5397 6001247.306 5199848.1811 4016343.7493 2376639.5947 147068.53754 -2806036.6018 
-6770344.3678 -12033523.305 -18891098.11 -27638593.48 -39765159.729 -56759947.171 -319525883.81 -232805406.1 -171843637 
-128503688.8 -94648673.777 -68772261.101 -49368119.942 -34923028.559 -23923765.212 -15659179.553 -9418121.2357 -4762645.8707 
-1254809.0682 1341805.3186 3263613.4365 4641056.6837 5604576.4586 6216677.8599 6539865.9862 6590501.8786 6384946.5783 
5899891.2591 5112027.0951 3948511.0632 2336500.1401 144584.67311 -2758644.9907 -6655998.9146 -11830287.162 -18572043.265 
-27171800.756 -39093559.445 -55801319.143 -313859485.57 -228676888.78 -168796201.62 -126224834.05 -92970196.049 -67552669.701 
-48492637.101 -34303711.633 -23499506.682 -15381483.277 -9251102.4475 -4678186.2077 -1232556.5731 1318010.0537 3205737.2701 
4558753.2568 5505186.1944 6106432.7307 6423889.5134 6473627.4406 6271717.4104 5795263.9502 5021371.5874 3878489.08 
2295065.1864 142020.64208 -2709723.8173 -6537962.9668 -11620491.581 -18242690.938 -26689942.315 -38400283.288 -54811751.434 

theta 1 1089 double
373 348.43845799 329.85628199 315.93955494 305.3743598 297.44488435 291.43531637 286.93054499 283.51545934 
280.95662925 279.02062452 277.5747279 276.48622214 275.68092273 275.08464521 274.65713176 274.35812462 274.16817555 
274.06783635 274.05199683 274.11554683 274.26585342 274.51028368 274.87083582 275.36950808 276.04932252 276.95330123 
278.1594727 279.74586543 281.84616249 284.59404692 288.23137426 293 379.73411716 354.7291427 335.81148533 
321.64350662 310.88756816 302.81493449 296.69687016 292.11076994 288.63402856 286.02900152 284.05804429 282.58604355 
281.47788597 280.65804775 280.05100507 279.61577333 279.31136793 279.11798953 279.01583881 278.99971333 279.06441066 
279.21743087 279.46627405 279.83333558 280.34101083 281.0330986 281.95339768 283.18134529 284.79637865 286.93459433 
289.73208889 293.43508429 298.28980248 386.25768637 360.82314377 341.58049414 327.16911937 316.22840133 308.0170854 
301.79391697 297.12903072 293.59256133 290.94278173 288.93796482 287.44067613 286.31348117 285.47955869 284.86208744 
284.41937872 284.10974384 283.91304334 283.80913774 283.79273524 283.85854402 284.01419301 284.26731115 284.64067854 
285.1570753 285.86105266 286.79716184 288.04620474 289.68898326 291.863932 294.70948558 298.47609587 303.41421477 
392.5361162 366.68814754 347.13271805 332.48709343 321.36853936 313.02375251 306.69942952 301.95871782 298.36476486 
295.67191438 293.63451015 292.11288376 290.96736681 290.11988933 289.49238138 289.04247664 288.7278088 288.52791103 
288.4223165 288.40564738 288.47252585 288.63070484 288.88793729 289.26737359 289.79216412 290.50758429 291.45890947 
292.72825495 294.39773603 296.6080375 299.49984416 303.32767886 308.34606446 398.53424516 372.29130788 352.43706261 
337.56764623 326.27919564 317.80689668 311.38593518 306.57278327 302.92391308 300.18991464 298.12137795 296.57650043 
295.41347945 294.55305214 293.91595558 293.4591761 293.13969999 292.93674769 292.82953963 292.8126158 292.8805162 
293.04111224 293.30227532 293.68750957 294.22031914 294.94667125 295.91253311 297.20127476 298.89626626 301.14034214 
304.07633691 307.96266266 313.05773145 404.21673005 377.59960888 357.46227263 342.38084127 330.93143475 322.33833385 
315.82581932 310.94403927 307.24314181 304.47016075 302.37212992 300.80522482 299.62562096 298.75292527 298.1067447 
297.64345225 297.3194209 297.11357481 297.00483813 296.98767299 297.05654155 297.21942744 297.4843143 297.8750414 
298.41544802 299.15215679 300.13179035 301.43890747 303.15806695 305.43413989 308.41199743 312.3537362 317.52145283 
409.54847563 382.58026627 362.17731223 346.89695205 335.29652427 326.59007767 319.99166103 315.04548877 311.29577531 
308.48621776 306.36051324 304.77294017 303.57777696 302.69357015 302.03886625 301.56946283 301.24115741 301.03259615 
300.92242519 300.90503363 300.97481059 301.139845 301.4082258 301.80410671 302.35164146 303.09806766 304.09062289 
305.4149813 307.15681702 309.46291208 312.4800485 316.47378004 321.70966048 414.49509892 387.20116116 366.55177542 
351.08685544 339.34631495 330.53470982 323.85659595 318.85068265 315.05567927 312.21218722 310.06080794 308.45405978 
307.24446111 306.34957464 305.68696308 305.21189008 304.87961931 304.668539 304.55703737 304.53943576 304.6100555 
304.77708323 305.0487056 305.44936805 306.00351606 306.75895776 307.76350131 309.10385564 310.86672967 313.20067829 
316.25425639 320.29622516 325.5953458 419.02341926 391.43129777 370.55631942 354.92244662 343.05364182 334.14577073 
327.39469909 322.33409665 318.49763321 315.62307627 313.44819338 311.82389165 310.60107822 309.6964152 309.02656467 
308.54630154 308.21040075 307.9970144 307.88429463 307.86650072 307.93789197 308.10674447 308.38133428 308.78637394 
309.34657596 310.11027079 311.12578889 312.48078646 314.26291972 316.62236652 319.70930467 323.79543158 329.15244462 
423.10196296 395.24127492 374.163111 358.37706668 346.39273745 337.39816204 330.58137917 325.47151962 321.59771414 
318.69517785 316.49912584 314.85901405 313.62429843 312.71082992 312.03445943 311.54952169 311.21035142 310.99488809 
310.88107116 310.86310406 310.93519019 311.10568621 311.38294873 311.79193082 312.35758554 313.12871376 314.15411635 
315.52230272 317.32178229 319.70419464 322.82117935 326.94707838 332.35623364 426.70147023 398.60375955 377.34627477 
361.4259319 349.33964692 340.26855085 333.39377473 328.24044344 324.33368186 321.40645247 319.19171771 317.5376528 
316.29243293 315.37119315 314.68906849 314.20000519 313.85794945 313.64065308 313.52586786 313.50774791 313.58044731 
313.75239381 314.03201512 314.44447659 315.01494357 315.79263211 316.82675823 318.20658434 320.02137285 322.42405338 
325.56755561 329.7285554 335.18372863 429.79539039 401.49394927 380.08233107 364.04655323 351.87263321 342.73576459 
335.81114095 330.62044396 326.68535531 323.7369012 321.50610789 319.84004971 318.58580102 317.65788153 316.97081093 
316.47820153 316.13366562 315.91479368 315.79917618 315.78092484 315.85415138 316.02734462 316.3089934 316.72444554 
317.29904886 318.08237624 319.12400059 320.51383153 322.34177867 324.76188052 327.9281756 332.1193459 337.61407342 
432.36035069 403.89001043 382.35061061 366.21913343 353.97256111 344.78116491 337.81521606 332.5935417 328.63496897 
325.6689189 323.42481251 321.74881152 320.48707765 319.55362046 318.86244952 318.36690029 318.02030824 317.8001301 
317.68382262 317.66546235 317.73912589 317.91335273 318.19668235 318.61461386 319.19264633 319.9806485 321.02848912 
322.42661438 324.26547046 326.70001515 329.88520625 334.10138888 339.62890818 434.37658421 405.77347772 384.13363284 
367.92692947 355.62324749 346.38898889 339.39055561 334.14453093 330.16749812 327.18761641 324.93304504 323.24922833 
321.98161059 321.0438004 320.34940631 319.85154618 319.50333786 319.28213296 319.16528309 319.14683721 319.22084427 
319.39588358 319.68053446 320.10041491 320.68114293 321.47281981 322.52554684 323.930192 325.77762325 328.223521 
331.42356565 335.65940968 341.21270556 435.82830255 407.12960238 385.41743556 369.1565682 356.81176642 347.54664625 
340.52482369 335.26126641 331.27094207 328.28110138 326.01899507 324.32955091 323.05769671 322.11675228 321.42003747 
320.92051346 320.5711414 320.34919722 320.23195683 320.2134493 320.28770369 320.463328 320.74893021 321.17021393 
321.75288278 322.5472055 323.60345083 325.01279041 326.86639591 329.32046803 332.53120747 336.781208 342.3530634 
436.70400059 407.9476369 386.19184441 369.89830452 357.52869867 348.24496234 341.20903103 335.93489782 331.93655583 
328.94070773 326.67405623 324.98121753 323.70680781 322.76397277 322.06585808 321.56533038 321.21525634 320.99286621 
320.87539026 320.85684554 320.93124913 321.10722631 321.39340237 321.81553257 322.39937216 323.1952909 324.25365851 
325.66582984 327.52315974 329.98216276 333.19935345 337.45789339 343.04094416 436.99668247 408.22104608 386.45067271 
370.14621279 357.76831674 348.47835839 341.43771155 336.16004359 332.15902188 329.16116595 326.89299532 325.19902206 
323.92375824 322.9802913 322.28170872 321.78084557 321.43053691 321.20799773 321.09044304 321.0718859 321.14633935 
321.32243448 321.60880233 322.03121544 322.61544633 323.4118985 324.47097543 325.88409321 327.7426679 330.20331896 
333.42266583 337.68405988 343.27085245 436.70400059 407.9476369 386.19184441 369.89830452 357.52869867 348.24496234 
341.20903103 335.93489782 331.93655583 328.94070773 326.67405623 324.98121753 323.70680781 322.76397277 322.06585808 
321.56533038 321.21525634 320.99286621 320.87539026 320.85684554 320.93124913 321.10722631 321.39340237 321.81553257 
322.39937216 323.1952909 324.25365851 325.66582984 327.52315974 329.98216276 333.19935345 337.45789339 343.04094416 
435.82830255 407.12960238 385.41743556 369.1565682 356.81176642 347.54664625 340.52482369 335.26126641 331.27094207 
328.28110138 326.01899507 324.32955091 323.05769671 322.11675228 321.42003747 320.92051346 320.5711414 320.34919722 
320.23195683 320.2134493 320.28770369 320.463328 320.74893021 321.17021393 321.75288278 322.5472055 323.60345083 
325.01279041 326.86639591 329.32046803 332.53120747 336.781208 342.3530634 434.37658421 405.77347772 384.13363284 
367.92692947 355.62324749 346.38898889 339.39055561 334.14453093 330.16749812 327.18761641 324.93304504 323.24922833 
321.98161059 321.0438004 320.34940631 319.85154618 319.50333786 319.28213296 319.16528309 319.14683721 319.22084427 
319.39588358 319.68053446 320.10041491 320.68114293 321.47281981 322.52554684 323.930192 325.77762325 328.223521 
331.42356565 335.65940968 341.21270556 432.36035069 403.89001043 382.35061061 366.21913343 353.97256111 344.78116491 
337.81521606 332.5935417 328.63496897 325.6689189 323.42481251 321.74881152 320.48707765 319.55362046 318.86244952 
318.36690029 318.02030824 317.8001301 317.68382262 317.66546235 317.73912589 317.91335273 318.19668235 318.61461386 
319.19264633 319.9806485 321.02848912 322.42661438 324.26547046 326.70001515 329.88520625 334.10138888 339.62890818 
429.79539039 401.49394927 380.08233107 364.04655323 351.87263321 342.73576459 335.81114095 330.62044396 326.68535531 
323.7369012 321.50610789 319.84004971 318.58580102 317.65788153 316.97081093 316.47820153 316.13366562 315.91479368 
315.79917618 315.78092484 315.85415138 316.02734462 316.3089934 316.72444554 317.29904886 318.08237624 319.12400059 
320.51383153 322.34177867 324.76188052 327.9281756 332.1193459 337.61407342 426.70147023 398.60375955 377.34627477 
361.4259319 349.33964692 340.26855085 333.39377473 328.24044344 324.33368186 321.40645247 319.19171771 317.5376528 
316.29243293 315.37119315 314.68906849 314.20000519 313.85794945 313.64065308 313.52586786 313.50774791 313.58044731 
313.75239381 314.03201512 314.44447659 315.01494357 315.79263211 316.82675823 318.20658434 320.02137285 322.42405338 
325.56755561 329.7285554 335.18372863 423.10196296 395.24127492 374.163111 358.37706668 346.39273745 337.39816204 
330.58137917 325.47151962 321.59771414 318.69517785 316.49912584 314.85901405 313.62429843 312.71082992 312.03445943 
311.54952169 311.21035142 310.99488809 310.88107116 310.86310406 310.93519019 311.10568621 311.38294873 311.79193082 
312.35758554 313.12871376 314.15411635 315.52230272 317.32178229 319.70419464 322.82117935 326.94707838 332.35623364 
419.02341926 391.43129777 370.55631942 354.92244662 343.05364182 334.14577073 327.39469909 322.33409665 318.49763321 
315.62307627 313.44819338 311.82389165 310.60107822 309.6964152 309.02656467 308.54630154 308.21040075 307.9970144 
307.88429463 307.86650072 307.93789197 308.10674447 308.38133428 308.78637394 309.34657596 310.11027079 311.12578889 
312.48078646 314.26291972 316.62236652 319.70930467 323.79543158 329.15244462 414.49509892 387.20116116 366.55177542 
351.08685544 339.34631495 330.53470982 323.85659595 318.85068265 315.05567927 312.21218722 310.06080794 308.45405978 
307.24446111 306.34957464 305.68696308 305.21189008 304.87961931 304.668539 304.55703737 304.53943576 304.6100555 
304.77708323 305.0487056 305.44936805 306.00351606 306.75895776 307.76350131 309.10385564 310.86672967 313.20067829 
316.25425639 320.29622516 325.5953458 409.54847563 382.58026627 362.17731223 346.89695205 335.29652427 326.59007767 
319.99166103 315.04548877 311.29577531 308.48621776 306.36051324 304.77294017 303.57777696 302.69357015 302.03886625 
301.56946283 301.24115741 301.03259615 300.92242519 300.90503363 300.97481059 301.139845 301.4082258 301.80410671 
302.35164146 303.09806766 304.09062289 305.4149813 307.15681702 309.46291208 312.4800485 316.47378004 321.70966048 
404.21673005 377.59960888 357.46227263 342.38084127 330.93143475 322.33833385 315.82581932 310.94403927 307.24314181 
304.47016075 302.37212992 300.80522482 299.62562096 298.75292527 298.1067447 297.64345225 297.3194209 297.11357481 
297.00483813 296.98767299 297.05654155 297.21942744 297.4843143 297.8750414 298.41544802 299.15215679 300.13179035 
301.43890747 303.15806695 305.43413989 308.41199743 312.3537362 317.52145283 398.53424516 372.29130788 352.43706261 
337.56764623 326.27919564 317.80689668 311.38593518 306.57278327 302.92391308 300.18991464 298.12137795 296.57650043 
295.41347945 294.55305214 293.91595558 293.4591761 293.13969999 292.93674769 292.82953963 292.8126158 292.8805162 
293.04111224 293.30227532 293.68750957 294.22031914 294.94667125 295.91253311 297.20127476 298.89626626 301.14034214 
304.07633691 307.96266266 313.05773145 392.5361162 366.68814754 347.13271805 332.48709343 321.36853936 313.02375251 
306.69942952 301.95871782 298.36476486 295.67191438 293.63451015 292.11288376 290.96736681 290.11988933 289.49238138 
289.04247664 288.7278088 288.52791103 288.4223165 288.40564738 288.47252585 288.63070484 288.88793729 289.26737359 
289.79216412 290.50758429 291.45890947 292.72825495 294.39773603 296.6080375 299.49984416 303.32767886 308.34606446 
386.25768637 360.82314377 341.58049414 327.16911937 316.22840133 308.0170854 301.79391697 297.12903072 293.59256133 
290.94278173 288.93796482 287.44067613 286.31348117 285.47955869 284.86208744 284.41937872 284.10974384 283.91304334 
283.80913774 283.79273524 283.85854402 284.01419301 284.26731115 284.64067854 285.1570753 285.86105266 286.79716184 
288.04620474 289.68898326 291.863932 294.70948558 298.47609587 303.41421477 379.73411716 354.7291427 335.81148533 
321.64350662 310.88756816 302.81493449 296.69687016 292.11076994 288.63402856 286.02900152 284.05804429 282.58604355 
281.47788597 280.65804775 280.05100507 279.61577333 279.31136793 279.11798953 279.01583881 278.99971333 279.06441066 
279.21743087 279.46627405 279.83333558 280.34101083 281.0330986 281.95339768 283.18134529 284.79637865 286.93459433 
289.73208889 293.43508429 298.28980248 373 348.43845799 329.85628199 315.93955494 305.3743598 297.44488435 
291.43531637 286.93054499 283.51545934 280.95662925 279.02062452 277.5747279 276.48622214 275.68092273 275.08464521 
274.65713176 274.35812462 274.16817555 274.06783635 274.05199683 274.11554683 274.26585342 274.51028368 274.87083582 
275.36950808 276.04932252 276.95330123 278.1594727 279.74586543 281.84616249 284.59404692 288.23137426 293 

von%20Mises%20stress 1 1089 double
272678353.34 206803703.93 151646734.06 108158487.96 77290009.866 56147131.996 41835686.55 33281318.229 29409671.732 
28504592.527 28849926.082 29765228.648 30570056.477 31198793.182 31585822.372 31754088.227 31726534.927 31529335.703 
31188663.788 30716149.763 30123424.212 29409091.478 28571755.905 27610307.378 26523635.782 25362181.911 24176386.555 
23289556.09 23024996.893 24483068.511 28764130.493 36036633.128 46469026.701 277601270.17 210537324.23 154384554.09 
110111174.09 78685398.554 57160808.576 42590985.248 33882176.931 29940631.986 29019212.541 29370780.725 30302608.102 
31121966.24 31762054.115 32156070.704 32327374.42 32299323.674 32098564.229 31751741.846 31270697.084 30667270.505 
29940041.256 29087588.482 28108782.027 27002491.735 25820069.052 24612865.426 23710024.184 23440688.653 24925084.199 
29283436.19 36687236.102 47307975.413 282370267.79 214154209.69 157036773.84 112002807.82 80037159.223 58142791.692 
43322668.887 34464249.272 30454991.314 29517742.521 29875350.402 30823185.929 31656620.072 32307704.213 32708489.734 
32882736.329 32854203.692 32649995.338 32297214.786 31807906.009 31194112.98 30454390.435 29587293.113 28591671.441 
27466375.847 26263639.962 25035697.413 24117345.984 23843383.454 25353279.888 29786505.348 37317497.417 48120693.677 
286960058.42 217635181.65 159589329.81 113823358.7 81338124.11 59087874.341 44026857.686 35024448.791 30950022.306 
29997538.992 30360959.614 31324201.744 32171182.952 32832850.148 33240150.242 33417229.13 33388232.708 33180705.048 
32822190.22 32324927.968 31701158.033 30949411.66 30068220.095 29056415.08 27912828.357 26690542.587 25442640.433 
24509361.65 24230945.993 25765385.056 30270670.428 37924075.09 48902872.022 291344937.58 220960745.42 162027926.78 
115562630.98 82581007.345 59990763.72 44699607.935 35559638.172 31422952.611 30455914.922 30824888.776 31802849.68 
32662773.143 33334550.912 33748074.735 33927859.469 33898419.969 33687721.192 33323728.096 32818867.453 32185566.031 
31422332.635 30527676.065 29500410.212 28339348.968 27098386.121 25831415.459 24883875.754 24601205.781 26159091.764 
30733219.93 38503572.069 49650129.972 295499067.94 224111305.54 164338195.61 117210376.21 83758485.397 60846139.67 
45336955.541 36066663.877 31870995.547 30890169.39 31264404.243 32256309.365 33128494.012 33809850.298 34229270.335 
34411618.522 34381759.259 34168056.242 33798873.165 33286813.986 32644482.661 31870366.731 30962953.736 29921040.653 
28743424.463 27484767.396 26199731.682 25238681.52 24951981.108 26532080.148 31171428.34 39052573.74 50358064.401 
299396793.42 227067404.02 166505868 118756417.87 84863286.116 61648719.355 45934964.218 36542394.497 32291383.985 
31297620.422 31676791.551 32681780.212 33565469.249 34255812.838 34680765.156 34865518.573 34835265.458 34618743.631 
34244690.914 33725877.513 33075073.636 32290746.874 31371364.816 30315708.573 29122559.256 27847300.106 26545314.368 
25571587.653 25281105.573 26882046.615 31582589.266 39567689.448 51022303.081 303012978.66 229809977.8 168516965.24 
120190785.96 85888284.945 62393327.16 46489777.574 36983762.175 32681406.953 31675640.48 32059391.327 33076518.478 
33970880.92 34669562.643 35099647.636 35286632.548 35256014.028 35036877 34658306.385 34133226.633 33474562.194 
32680762.148 31750275.576 30681868.867 29474308.41 28183646.38 26865934.95 25880447.333 25586456.742 27206734.328 
31964051.245 40045597.354 51638562.518 306323367.22 232320630.39 170357997.38 121503859.1 86826606.456 63074968.446 
46997674.062 37387806.331 33038448.279 32021693.901 32409637.19 33437876.361 34342009.629 35048324.384 35483108.016 
35672135.721 35641182.697 35419651.617 35036945.153 34506128.954 33840268.667 33037796.429 32097144.379 31017065.426 
29796312.484 28491550.09 27159442.786 26163188.809 25865986.398 27503965.366 32313255.527 40483091.774 52202709.002 
309304950.54 234581911.74 172016168.51 122686510.89 87671728.929 63688905.527 47455123.595 37751718.692 33360026.379 
32333375.472 32725094.788 33763342.274 34676275.879 35389465.514 35828481.09 36019348.687 35988094.383 35764407.041 
35377975.524 34841992.651 34169651.246 33359368.185 32409560.344 31318968.496 30086333.415 28768871.182 27423797.877 
26417846.912 26117751.695 27771673.85 32627774.999 40877131.943 52710821.484 311936338.52 236577599.24 173479582.78 
123730256.91 88417589.393 64230733.973 47858844.394 38072888.524 33643834.228 32608449.167 33003501.005 34050581.302 
34971281.618 35690538.659 36133289.126 36325780.515 36294260.317 36068669.972 35678950.918 35138408.213 34460346.915 
33643170.433 32685282.175 31585412.202 30342290.573 29013620.132 27657103.72 26642594.704 26339946.451 28007939.221 
32905353.275 41224890.986 53159254.728 314198121.51 238292972.29 174737445.75 124627398.27 89058686.228 64696457.145 
48205858.533 38348946.811 33887778.399 32844885.986 33242802.259 34297474.709 35224850.825 35949323.042 36395283.798 
36589170.9 36557422.156 36330196.104 35937651.282 35393189.218 34710211.444 33887109.792 32922276.094 31814431.201 
30562295.966 29223991.622 27857639.403 26835774.401 26530931.711 28211018.736 33143942.881 41523803.763 53544700.997 
316073213.07 239715072.26 175780255 125371157.59 89590176.326 65082556.782 48493544.525 38577808.098 34090016.041 
33040899.788 33441190.771 34502157.362 35435067.932 36163863.702 36612485.89 36807530.083 36775591.868 36547009.762 
36152122.285 35604410.946 34917357.254 34089343.444 33118751.749 32004295.389 30744687.582 29398396.42 28023889.997 
26995926.644 26689264.694 28379378.25 33341741.414 41771612.163 53864248.473 317547162.76 240832939.72 176599974.11 
125955803.08 90007963.749 65386057.397 48719685.312 38757708.659 34248988.604 33194979.989 33597137.656 34663051.871 
35600312.899 36332507.274 36783221.53 36979175.277 36947088.123 36717440.066 36320711.104 35770445.613 35080187.972 
34248312.87 33273194.998 32153541.575 30888059.816 29535490.472 28154574.289 27121817.217 26813725.205 28511720.297 
33497224.535 41966406.446 54115434.556 318608428.62 241637821.03 177190184.16 126376756.6 90308776.952 65604582.387 
48882510.067 38887239.759 34363451.231 33305920.042 33709421.749 34778898.327 35719291.751 36453933.173 36906153.749 
37102762.387 37070567.996 36840152.439 36442097.579 35889993.061 35197428.528 34362773.239 33384396.452 32261001.064 
30991289.973 29634200.243 28248668.937 27212460.316 26903338.638 28607008.553 33609174.711 42106661.248 54296292.3 
319248599.94 242123337.38 177546207.61 126630682 90490231.94 65736399.904 48980728.375 38965374.84 34432496.786 
33372840.728 33777153.18 34848778.629 35791061.559 36527179.077 36980308.288 37177311.966 37145052.887 36914174.362 
36515319.702 35962105.855 35268149.771 34431817.431 33451474.818 32325822.223 31053559.936 29693743.442 28305428.225 
27267137.578 26957394.79 28664487.843 33676704.719 42191265.026 54405388.374 319462562.44 242285610.03 177665200.24 
126715550.71 90550879.085 65780456.869 49013555.579 38991489.689 34455573.671 33395207.424 33799790.849 34872134.508 
35815048.963 36551659.831 37005092.732 37202228.444 37169947.745 36938914.484 36539792.508 35986207.894 35291786.716 
34454893.861 33473894.216 32347487.2 31074372.235 29713644.383 28324398.708 27285412.192 26975461.812 28683698.97 
33699275.067 42219541.888 54441851.222 319248599.94 242123337.38 177546207.61 126630682 90490231.94 65736399.904 
48980728.375 38965374.84 34432496.786 33372840.728 33777153.18 34848778.629 35791061.559 36527179.077 36980308.288 
37177311.966 37145052.887 36914174.362 36515319.702 35962105.855 35268149.771 34431817.431 33451474.818 32325822.223 
31053559.936 29693743.442 28305428.225 27267137.578 26957394.79 28664487.843 33676704.719 42191265.026 54405388.374 
318608428.62 241637821.03 177190184.16 126376756.6 90308776.952 65604582.387 48882510.067 38887239.759 34363451.231 
33305920.042 33709421.749 34778898.327 35719291.751 36453933.173 36906153.749 37102762.387 37070567.996 36840152.439 
36442097.579 35889993.061 35197428.528 34362773.239 33384396.452 32261001.064 30991289.973 29634200.243 28248668.937 
27212460.316 26903338.638 28607008.553 33609174.711 42106661.248 54296292.3 317547162.76 240832939.72 176599974.11 
125955803.08 90007963.749 65386057.397 48719685.312 38757708.659 34248988.604 33194979.989 33597137.656 34663051.871 
35600312.899 36332507.274 36783221.53 36979175.277 36947088.123 36717440.066 36320711.104 35770445.613 35080187.972 
34248312.87 33273194.998 32153541.575 30888059.816 29535490.472 28154574.289 27121817.217 26813725.205 28511720.296 
33497224.535 41966406.446 54115434.556 316073213.07 239715072.26 175780255 125371157.59 89590176.326 65082556.782 
48493544.525 38577808.098 34090016.041 33040899.788 33441190.771 34502157.362 35435067.932 36163863.702 36612485.89 
36807530.083 36775591.868 36547009.762 36152122.285 35604410.946 34917357.254 34089343.444 33118751.749 32004295.389 
30744687.582 29398396.42 28023889.997 26995926.644 26689264.694 28379378.25 33341741.414 41771612.163 53864248.473 
314198121.51 238292972.29 174737445.75 124627398.27 89058686.228 64696457.145 48205858.533 38348946.811 33887778.399 
32844885.986 33242802.259 34297474.709 35224850.825 35949323.042 36395283.798 36589170.9 36557422.156 36330196.104 
35937651.282 35393189.218 34710211.444 33887109.792 32922276.094 31814431.201 30562295.966 29223991.622 27857639.403 
26835774.401 26530931.711 28211018.736 33143942.881 41523803.763 53544700.997 311936338.52 236577599.24 173479582.78 
123730256.91 88417589.393 64230733.973 47858844.394 38072888.524 33643834.228 32608449.167 33003501.005 34050581.302 
34971281.618 35690538.659 36133289.126 36325780.515 36294260.317 36068669.972 35678950.918 35138408.213 34460346.915 
33643170.433 32685282.175 31585412.202 30342290.573 29013620.132 27657103.72 26642594.704 26339946.451 28007939.221 
32905353.275 41224890.986 53159254.728 309304950.54 234581911.74 172016168.51 122686510.89 87671728.929 63688905.527 
47455123.595 37751718.692 33360026.379 32333375.472 32725094.788 33763342.274 34676275.879 35389465.514 35828481.09 
36019348.687 35988094.383 35764407.041 35377975.524 34841992.651 34169651.246 33359368.185 32409560.344 31318968.496 
30086333.415 28768871.182 27423797.877 26417846.912 26117751.695 27771673.85 32627774.999 40877131.943 52710821.484 
306323367.22 232320630.39 170357997.38 121503859.1 86826606.456 63074968.446 46997674.062 37387806.331 33038448.279 
32021693.901 32409637.19 33437876.361 34342009.629 35048324.384 35483108.016 35672135.721 35641182.697 35419651.617 
35036945.153 34506128.954 33840268.667 33037796.429 32097144.379 31017065.426 29796312.484 28491550.09 27159442.786 
26163188.809 25865986.398 27503965.366 32313255.527 40483091.774 52202709.002 303012978.66 229809977.8 168516965.24 
120190785.96 85888284.945 62393327.16 46489777.574 36983762.175 32681406.953 31675640.48 32059391.327 33076518.478 
33970880.92 34669562.643 35099647.636 35286632.548 35256014.028 35036877 34658306.385 34133226.633 33474562.194 
32680762.148 31750275.576 30681868.867 29474308.41 28183646.38 26865934.95 25880447.333 25586456.742 27206734.328 
31964051.245 40045597.354 51638562.518 299396793.42 227067404.02 166505868 118756417.87 84863286.116 61648719.355 
45934964.218 36542394.497 32291383.985 31297620.422 31676791.551 32681780.212 33565469.249 34255812.838 34680765.156 
34865518.573 34835265.458 34618743.631 34244690.914 33725877.513 33075073.636 32290746.874 31371364.816 30315708.573 
29122559.256 27847300.106 26545314.368 25571587.653 25281105.573 26882046.615 31582589.266 39567689.448 51022303.081 
295499067.94 224111305.54 164338195.61 117210376.21 83758485.397 60846139.67 45336955.541 36066663.877 31870995.547 
30890169.39 31264404.243 32256309.365 33128494.012 33809850.298 34229270.335 34411618.522 34381759.259 34168056.242 
33798873.165 33286813.986 32644482.661 31870366.731 30962953.736 29921040.653 28743424.463 27484767.396 26199731.682 
25238681.52 24951981.108 26532080.148 31171428.34 39052573.74 50358064.401 291344937.58 220960745.42 162027926.78 
115562630.98 82581007.345 59990763.72 44699607.935 35559638.172 31422952.611 30455914.922 30824888.776 31802849.68 
32662773.143 33334550.912 33748074.735 33927859.469 33898419.969 33687721.192 33323728.096 32818867.453 32185566.031 
31422332.635 30527676.065 29500410.212 28339348.968 27098386.121 25831415.459 24883875.754 24601205.781 26159091.764 
30733219.93 38503572.069 49650129.972 286960058.42 217635181.65 159589329.81 113823358.7 81338124.11 59087874.341 
44026857.686 35024448.791 30950022.306 29997538.992 30360959.614 31324201.744 32171182.952 32832850.148 33240150.242 
33417229.13 33388232.708 33180705.048 32822190.22 32324927.968 31701158.033 30949411.66 30068220.095 29056415.08 
27912828.357 26690542.587 25442640.433 24509361.65 24230945.993 25765385.056 30270670.428 37924075.09 48902872.022 
282370267.79 214154209.69 157036773.84 112002807.82 80037159.223 58142791.692 43322668.887 34464249.272 30454991.314 
29517742.521 29875350.402 30823185.929 31656620.072 32307704.213 32708489.734 32882736.329 32854203.692 32649995.338 
32297214.786 31807906.009 31194112.98 30454390.435 29587293.113 28591671.441 27466375.847 26263639.962 25035697.413 
24117345.984 23843383.454 25353279.888 29786505.348 37317497.417 48120693.677 277601270.17 210537324.23 154384554.09 
110111174.09 78685398.554 57160808.576 42590985.248 33882176.931 29940631.986 29019212.541 29370780.725 30302608.102 
31121966.24 31762054.115 32156070.704 32327374.42 32299323.674 32098564.229 31751741.846 31270697.084 30667270.505 
29940041.256 29087588.482 28108782.027 27002491.735 25820069.052 24612865.426 23710024.184 23440688.653 24925084.199 
29283436.19 36687236.102 47307975.413 272678353.34 206803703.93 151646734.06 108158487.96 77290009.866 56147131.996 
41835686.55 33281318.229 29409671.732 28504592.527 28849926.082 29765228.648 30570056.477 31198793.182 31585822.372 
31754088.227 31726534.927 31529335.703 31188663.788 30716149.763 30123424.212 29409091.478 28571755.905 27610307.378 
26523635.782 25362181.911 24176386.555 23289556.09 23024996.893 24483068.511 28764130.493 36036633.128 46469026.701 

