# vtk DataFile Version 5.1
vtk output
ASCII
DATASET UNSTRUCTURED_GRID
POINTS 1089 double
0.03 0 0 0.0303125 0 0 0.030625 0 0 
0.0309375 0 0 0.03125 0 0 0.0315625 0 0 
0.031875 0 0 0.0321875 0 0 0.0325 0 0 
0.0328125 0 0 0.033125 0 0 0.0334375 0 0 
0.03375 0 0 0.0340625 0 0 0.034375 0 0 
0.0346875 0 0 0.035 0 0 0.0353125 0 0 
0.035625 0 0 0.0359375 0 0 0.03625 0 0 
0.0365625 0 0 0.036875 0 0 0.0371875 0 0 
0.0375 0 0 0.0378125 0 0 0.038125 0 0 
0.0384375 0 0 0.03875 0 0 0.0390625 0 0 
0.039375 0 0 0.0396875 0 0 0.04 0 0 
0.029970174201 0.0013374073245 0 0.030282363516 0.0013513386508 0 0.03059455283 0.0013652699771 0 
0.030906742145 0.0013792013033 0 0.03121893146 0.0013931326296 0 0.031531120774 0.0014070639559 0 
0.031843310089 0.0014209952822 0 0.032155499403 0.0014349266085 0 0.032467688718 0.0014488579348 0 
0.032779878033 0.0014627892611 0 0.033092067347 0.0014767205874 0 0.033404256662 0.0014906519137 0 
0.033716445976 0.00150458324 0 0.034028635291 0.0015185145663 0 0.034340824606 0.0015324458926 0 
0.03465301392 0.0015463772189 0 0.034965203235 0.0015603085452 0 0.035277392549 0.0015742398715 0 
0.035589581864 0.0015881711978 0 0.035901771178 0.0016021025241 0 0.036213960493 0.0016160338504 0 
0.036526149808 0.0016299651767 0 0.036838339122 0.001643896503 0 0.037150528437 0.0016578278293 0 
0.037462717751 0.0016717591556 0 0.037774907066 0.0016856904819 0 0.038087096381 0.0016996218082 0 
0.038399285695 0.0017135531345 0 0.03871147501 0.0017274844608 0 0.039023664324 0.0017414157871 0 
0.039335853639 0.0017553471134 0 0.039648042954 0.0017692784396 0 0.039960232268 0.0017832097659 0 
0.029878647258 0.0026956331369 0 0.030189883167 0.0027237126488 0 0.030501119076 0.0027517921606 0 
0.030812354985 0.0027798716725 0 0.031123590894 0.0028079511843 0 0.031434826803 0.0028360306961 0 
0.031746062712 0.002864110208 0 0.032057298621 0.0028921897198 0 0.03236853453 0.0029202692317 0 
0.032679770439 0.0029483487435 0 0.032991006348 0.0029764282554 0 0.033302242257 0.0030045077672 0 
0.033613478166 0.003032587279 0 0.033924714075 0.0030606667909 0 0.034235949984 0.0030887463027 0 
0.034547185893 0.0031168258146 0 0.034858421801 0.0031449053264 0 0.03516965771 0.0031729848383 0 
0.035480893619 0.0032010643501 0 0.035792129528 0.0032291438619 0 0.036103365437 0.0032572233738 0 
0.036414601346 0.0032853028856 0 0.036725837255 0.0033133823975 0 0.037037073164 0.0033414619093 0 
0.037348309073 0.0033695414212 0 0.037659544982 0.003397620933 0 0.037970780891 0.0034257004448 0 
0.0382820168 0.0034537799567 0 0.038593252709 0.0034818594685 0 0.038904488618 0.0035099389804 0 
0.039215724527 0.0035380184922 0 0.039526960436 0.0035660980041 0 0.039838196345 0.0035941775159 0 
0.02972251814 0.0040708617533 0 0.030032127704 0.0041132665632 0 0.030341737268 0.0041556713732 0 
0.030651346832 0.0041980761831 0 0.030960956396 0.004240480993 0 0.03127056596 0.004282885803 0 
0.031580175524 0.0043252906129 0 0.031889785088 0.0043676954228 0 0.032199394652 0.0044101002328 0 
0.032509004216 0.0044525050427 0 0.03281861378 0.0044949098526 0 0.033128223344 0.0045373146625 0 
0.033437832908 0.0045797194725 0 0.033747442472 0.0046221242824 0 0.034057052035 0.0046645290923 0 
0.034366661599 0.0047069339023 0 0.034676271163 0.0047493387122 0 0.034985880727 0.0047917435221 0 
0.035295490291 0.0048341483321 0 0.035605099855 0.004876553142 0 0.035914709419 0.0049189579519 0 
0.036224318983 0.0049613627618 0 0.036533928547 0.0050037675718 0 0.036843538111 0.0050461723817 0 
0.037153147675 0.0050885771916 0 0.037462757239 0.0051309820016 0 0.037772366803 0.0051733868115 0 
0.038081976367 0.0052157916214 0 0.038391585931 0.0052581964314 0 0.038701195495 0.0053006012413 0 
0.039010805059 0.0053430060512 0 0.039320414623 0.0053854108611 0 0.039630024187 0.0054278156711 0 
0.029499161052 0.0054588915724 0 0.02980644398 0.0055157550262 0 0.030113726908 0.0055726184801 0 
0.030421009835 0.005629481934 0 0.030728292763 0.0056863453879 0 0.031035575691 0.0057432088418 0 
0.031342858618 0.0058000722956 0 0.031650141546 0.0058569357495 0 0.031957424474 0.0059137992034 0 
0.032264707401 0.0059706626573 0 0.032571990329 0.0060275261112 0 0.032879273256 0.006084389565 0 
0.033186556184 0.0061412530189 0 0.033493839112 0.0061981164728 0 0.033801122039 0.0062549799267 0 
0.034108404967 0.0063118433805 0 0.034415687895 0.0063687068344 0 0.034722970822 0.0064255702883 0 
0.03503025375 0.0064824337422 0 0.035337536677 0.0065392971961 0 0.035644819605 0.0065961606499 0 
0.035952102533 0.0066530241038 0 0.03625938546 0.0067098875577 0 0.036566668388 0.0067667510116 0 
0.036873951316 0.0068236144655 0 0.037181234243 0.0068804779193 0 0.037488517171 0.0069373413732 0 
0.037795800099 0.0069942048271 0 0.038103083026 0.007051068281 0 0.038410365954 0.0071079317348 0 
0.038717648881 0.0071647951887 0 0.039024931809 0.0072216586426 0 0.039332214737 0.0072785220965 0 
0.029206281031 0.0068551548722 0 0.029510513125 0.0069265627354 0 0.029814745219 0.0069979705987 0 
0.030118977314 0.0070693784619 0 0.030423209408 0.0071407863252 0 0.030727441502 0.0072121941885 0 
0.031031673596 0.0072836020517 0 0.03133590569 0.007355009915 0 0.031640137784 0.0074264177782 0 
0.031944369878 0.0074978256415 0 0.032248601972 0.0075692335047 0 0.032552834066 0.007640641368 0 
0.03285706616 0.0077120492312 0 0.033161298254 0.0077834570945 0 0.033465530348 0.0078548649577 0 
0.033769762442 0.007926272821 0 0.034073994536 0.0079976806842 0 0.034378226631 0.0080690885475 0 
0.034682458725 0.0081404964107 0 0.034986690819 0.008211904274 0 0.035290922913 0.0082833121372 0 
0.035595155007 0.0083547200005 0 0.035899387101 0.0084261278637 0 0.036203619195 0.008497535727 0 
0.036507851289 0.0085689435902 0 0.036812083383 0.0086403514535 0 0.037116315477 0.0087117593167 0 
0.037420547571 0.00878316718 0 0.037724779665 0.0088545750432 0 0.038029011759 0.0089259829065 0 
0.038333243854 0.0089973907698 0 0.038637475948 0.009068798633 0 0.038941708042 0.0091402064963 0 
0.028841968746 0.0082547464454 0 0.02914240592 0.0083407333875 0 0.029442843094 0.0084267203296 0 
0.029743280269 0.0085127072718 0 0.030043717443 0.0085986942139 0 0.030344154618 0.0086846811561 0 
0.030644591792 0.0087706680982 0 0.030945028967 0.0088566550403 0 0.031245466141 0.0089426419825 0 
0.031545903316 0.0090286289246 0 0.03184634049 0.0091146158668 0 0.032146777664 0.0092006028089 0 
0.032447214839 0.009286589751 0 0.032747652013 0.0093725766932 0 0.033048089188 0.0094585636353 0 
0.033348526362 0.0095445505774 0 0.033648963537 0.0096305375196 0 0.033949400711 0.0097165244617 0 
0.034249837885 0.0098025114039 0 0.03455027506 0.009888498346 0 0.034850712234 0.0099744852881 0 
0.035151149409 0.01006047223 0 0.035451586583 0.010146459172 0 0.035752023758 0.010232446115 0 
0.036052460932 0.010318433057 0 0.036352898106 0.010404419999 0 0.036653335281 0.010490406941 0 
0.036953772455 0.010576393883 0 0.03725420963 0.010662380825 0 0.037554646804 0.010748367767 0 
0.037855083979 0.01083435471 0 0.038155521153 0.010920341652 0 0.038455958327 0.011006328594 0 
0.028404752965 0.0096524612915 0 0.028700635809 0.0097530077632 0 0.028996518652 0.009853554235 0 
0.029292401495 0.0099541007068 0 0.029588284339 0.010054647179 0 0.029884167182 0.01015519365 0 
0.030180050026 0.010255740122 0 0.030475932869 0.010356286594 0 0.030771815712 0.010456833066 0 
0.031067698556 0.010557379538 0 0.031363581399 0.010657926009 0 0.031659464243 0.010758472481 0 
0.031955347086 0.010859018953 0 0.032251229929 0.010959565425 0 0.032547112773 0.011060111896 0 
0.032842995616 0.011160658368 0 0.033138878459 0.01126120484 0 0.033434761303 0.011361751312 0 
0.033730644146 0.011462297784 0 0.03402652699 0.011562844255 0 0.034322409833 0.011663390727 0 
0.034618292676 0.011763937199 0 0.03491417552 0.011864483671 0 0.035210058363 0.011965030143 0 
0.035505941207 0.012065576614 0 0.03580182405 0.012166123086 0 0.036097706893 0.012266669558 0 
0.036393589737 0.01236721603 0 0.03668947258 0.012467762501 0 0.036985355424 0.012568308973 0 
0.037281238267 0.012668855445 0 0.03757712111 0.012769401917 0 0.037873003954 0.012869948389 0 
0.027893649032 0.011042841287 0 0.028184207876 0.011157870884 0 0.02847476672 0.01127290048 0 
0.028765325564 0.011387930077 0 0.029055884408 0.011502959674 0 0.029346443252 0.011617989271 0 
0.029637002096 0.011733018867 0 0.02992756094 0.011848048464 0 0.030218119785 0.011963078061 0 
0.030508678629 0.012078107657 0 0.030799237473 0.012193137254 0 0.031089796317 0.012308166851 0 
0.031380355161 0.012423196448 0 0.031670914005 0.012538226044 0 0.031961472849 0.012653255641 0 
0.032252031693 0.012768285238 0 0.032542590537 0.012883314835 0 0.032833149381 0.012998344431 0 
0.033123708225 0.013113374028 0 0.033414267069 0.013228403625 0 0.033704825914 0.013343433222 0 
0.033995384758 0.013458462818 0 0.034285943602 0.013573492415 0 0.034576502446 0.013688522012 0 
0.03486706129 0.013803551609 0 0.035157620134 0.013918581205 0 0.035448178978 0.014033610802 0 
0.035738737822 0.014148640399 0 0.036029296666 0.014263669996 0 0.03631985551 0.014378699592 0 
0.036610414354 0.014493729189 0 0.036900973198 0.014608758786 0 0.037191532042 0.014723788382 0 
0.027308201633 0.012420230416 0 0.027592662066 0.012549607816 0 0.0278771225 0.012678985216 0 
0.028161582934 0.012808362617 0 0.028446043367 0.012937740017 0 0.028730503801 0.013067117417 0 
0.029014964235 0.013196494817 0 0.029299424668 0.013325872217 0 0.029583885102 0.013455249617 0 
0.029868345536 0.013584627018 0 0.030152805969 0.013714004418 0 0.030437266403 0.013843381818 0 
0.030721726837 0.013972759218 0 0.03100618727 0.014102136618 0 0.031290647704 0.014231514018 0 
0.031575108138 0.014360891419 0 0.031859568571 0.014490268819 0 0.032144029005 0.014619646219 0 
0.032428489439 0.014749023619 0 0.032712949873 0.014878401019 0 0.032997410306 0.015007778419 0 
0.03328187074 0.01513715582 0 0.033566331174 0.01526653322 0 0.033850791607 0.01539591062 0 
0.034135252041 0.01552528802 0 0.034419712475 0.01565466542 0 0.034704172908 0.01578404282 0 
0.034988633342 0.015913420221 0 0.035273093776 0.016042797621 0 0.035557554209 0.016172175021 0 
0.035842014643 0.016301552421 0 0.036126475077 0.016430929821 0 0.03641093551 0.016560307221 0 
0.026648520205 0.013778837792 0 0.026926108957 0.013922367352 0 0.027203697709 0.014065896912 0 
0.027481286461 0.014209426473 0 0.027758875213 0.014352956033 0 0.028036463966 0.014496485593 0 
0.028314052718 0.014640015154 0 0.02859164147 0.014783544714 0 0.028869230222 0.014927074274 0 
0.029146818974 0.015070603835 0 0.029424407726 0.015214133395 0 0.029701996478 0.015357662955 0 
0.029979585231 0.015501192516 0 0.030257173983 0.015644722076 0 0.030534762735 0.015788251636 0 
0.030812351487 0.015931781197 0 0.031089940239 0.016075310757 0 0.031367528991 0.016218840317 0 
0.031645117743 0.016362369878 0 0.031922706495 0.016505899438 0 0.032200295248 0.016649428998 0 
0.032477884 0.016792958559 0 0.032755472752 0.016936488119 0 0.033033061504 0.017080017679 0 
0.033310650256 0.01722354724 0 0.033588239008 0.0173670768 0 0.03386582776 0.01751060636 0 
0.034143416513 0.017654135921 0 0.034421005265 0.017797665481 0 0.034698594017 0.017941195041 0 
0.034976182769 0.018084724602 0 0.035253771521 0.018228254162 0 0.035531360273 0.018371783722 0 
0.025915305412 0.01511280733 0 0.02618525651 0.015270232406 0 0.026455207609 0.015427657482 0 
0.026725158707 0.015585082559 0 0.026995109805 0.015742507635 0 0.027265060903 0.015899932711 0 
0.027535012001 0.016057357788 0 0.027804963099 0.016214782864 0 0.028074914197 0.01637220794 0 
0.028344865295 0.016529633017 0 0.028614816393 0.016687058093 0 0.028884767491 0.016844483169 0 
0.029154718589 0.017001908246 0 0.029424669687 0.017159333322 0 0.029694620785 0.017316758398 0 
0.029964571883 0.017474183475 0 0.030234522981 0.017631608551 0 0.030504474079 0.017789033628 0 
0.030774425177 0.017946458704 0 0.031044376275 0.01810388378 0 0.031314327373 0.018261308857 0 
0.031584278471 0.018418733933 0 0.031854229569 0.018576159009 0 0.032124180667 0.018733584086 0 
0.032394131766 0.018891009162 0 0.032664082864 0.019048434238 0 0.032934033962 0.019205859315 0 
0.03320398506 0.019363284391 0 0.033473936158 0.019520709467 0 0.033743887256 0.019678134544 0 
0.034013838354 0.01983555962 0 0.034283789452 0.019992984696 0 0.03455374055 0.020150409773 0 
0.025109865337 0.016416292602 0 0.025371426434 0.016587295649 0 0.025632987531 0.016758298697 0 
0.025894548628 0.016929301745 0 0.026156109726 0.017100304793 0 0.026417670823 0.017271307841 0 
0.02667923192 0.017442310889 0 0.026940793017 0.017613313937 0 0.027202354115 0.017784316985 0 
0.027463915212 0.017955320033 0 0.027725476309 0.018126323081 0 0.027987037406 0.018297326129 0 
0.028248598504 0.018468329177 0 0.028510159601 0.018639332225 0 0.028771720698 0.018810335273 0 
0.029033281795 0.018981338321 0 0.029294842893 0.019152341368 0 0.02955640399 0.019323344416 0 
0.029817965087 0.019494347464 0 0.030079526184 0.019665350512 0 0.030341087282 0.01983635356 0 
0.030602648379 0.020007356608 0 0.030864209476 0.020178359656 0 0.031125770573 0.020349362704 0 
0.031387331671 0.020520365752 0 0.031648892768 0.0206913688 0 0.031910453865 0.020862371848 0 
0.032172014962 0.021033374896 0 0.03243357606 0.021204377944 0 0.032695137157 0.021375380992 0 
0.032956698254 0.02154638404 0 0.033218259351 0.021717387087 0 0.033479820449 0.021888390135 0 
0.024234120303 0.017683535086 0 0.024486559056 0.017867738576 0 0.02473899781 0.018051942067 0 
0.024991436563 0.018236145557 0 0.025243875316 0.018420349048 0 0.025496314069 0.018604552538 0 
0.025748752822 0.018788756029 0 0.026001191575 0.018972959519 0 0.026253630329 0.019157163009 0 
0.026506069082 0.0193413665 0 0.026758507835 0.01952556999 0 0.027010946588 0.019709773481 0 
0.027263385341 0.019893976971 0 0.027515824094 0.020078180462 0 0.027768262847 0.020262383952 0 
0.028020701601 0.020446587443 0 0.028273140354 0.020630790933 0 0.028525579107 0.020814994424 0 
0.02877801786 0.020999197914 0 0.029030456613 0.021183401405 0 0.029282895366 0.021367604895 0 
0.02953533412 0.021551808386 0 0.029787772873 0.021736011876 0 0.030040211626 0.021920215367 0 
0.030292650379 0.022104418857 0 0.030545089132 0.022288622348 0 0.030797527885 0.022472825838 0 
0.031049966639 0.022657029329 0 0.031302405392 0.022841232819 0 0.031554844145 0.023025436309 0 
0.031807282898 0.0232096398 0 0.032059721651 0.02339384329 0 0.032312160404 0.023578046781 0 
0.023290595627 0.018908943792 0 0.023533205998 0.019105911956 0 0.023775816369 0.019302880121 0 
0.024018426741 0.019499848285 0 0.024261037112 0.01969681645 0 0.024503647483 0.019893784614 0 
0.024746257854 0.020090752779 0 0.024988868225 0.020287720943 0 0.025231478596 0.020484689108 0 
0.025474088967 0.020681657272 0 0.025716699338 0.020878625437 0 0.02595930971 0.021075593601 0 
0.026201920081 0.021272561766 0 0.026444530452 0.02146952993 0 0.026687140823 0.021666498095 0 
0.026929751194 0.021863466259 0 0.027172361565 0.022060434424 0 0.027414971936 0.022257402588 0 
0.027657582307 0.022454370753 0 0.027900192678 0.022651338917 0 0.02814280305 0.022848307082 0 
0.028385413421 0.023045275246 0 0.028628023792 0.023242243411 0 0.028870634163 0.023439211575 0 
0.029113244534 0.02363617974 0 0.029355854905 0.023833147904 0 0.029598465276 0.024030116069 0 
0.029841075647 0.024227084233 0 0.030083686019 0.024424052398 0 0.03032629639 0.024621020562 0 
0.030568906761 0.024817988727 0 0.030811517132 0.025014956891 0 0.031054127503 0.025211925056 0 
0.022282401967 0.020087174082 0 0.022514510321 0.020296415478 0 0.022746618674 0.020505656875 0 
0.022978727028 0.020714898272 0 0.023210835382 0.020924139669 0 0.023442943736 0.021133381065 0 
0.02367505209 0.021342622462 0 0.023907160444 0.021551863859 0 0.024139268797 0.021761105255 0 
0.024371377151 0.021970346652 0 0.024603485505 0.022179588049 0 0.024835593859 0.022388829445 0 
0.025067702213 0.022598070842 0 0.025299810566 0.022807312239 0 0.02553191892 0.023016553635 0 
0.025764027274 0.023225795032 0 0.025996135628 0.023435036429 0 0.026228243982 0.023644277825 0 
0.026460352336 0.023853519222 0 0.026692460689 0.024062760619 0 0.026924569043 0.024272002015 0 
0.027156677397 0.024481243412 0 0.027388785751 0.024690484809 0 0.027620894105 0.024899726206 0 
0.027853002458 0.025108967602 0 0.028085110812 0.025318208999 0 0.028317219166 0.025527450396 0 
0.02854932752 0.025736691792 0 0.028781435874 0.025945933189 0 0.029013544228 0.026155174586 0 
0.029245652581 0.026364415982 0 0.029477760935 0.026573657379 0 0.029709869289 0.026782898776 0 
0.021213203436 0.021213203436 0 0.021434174305 0.021434174305 0 0.021655145174 0.021655145174 0 
0.021876116043 0.021876116043 0 0.022097086912 0.022097086912 0 0.022318057781 0.022318057781 0 
0.02253902865 0.02253902865 0 0.022759999519 0.022759999519 0 0.022980970389 0.022980970389 0 
0.023201941258 0.023201941258 0 0.023422912127 0.023422912127 0 0.023643882996 0.023643882996 0 
0.023864853865 0.023864853865 0 0.024085824734 0.024085824734 0 0.024306795603 0.024306795603 0 
0.024527766472 0.024527766472 0 0.024748737342 0.024748737342 0 0.024969708211 0.024969708211 0 
0.02519067908 0.02519067908 0 0.025411649949 0.025411649949 0 0.025632620818 0.025632620818 0 
0.025853591687 0.025853591687 0 0.026074562556 0.026074562556 0 0.026295533425 0.026295533425 0 
0.026516504294 0.026516504294 0 0.026737475164 0.026737475164 0 0.026958446033 0.026958446033 0 
0.027179416902 0.027179416902 0 0.027400387771 0.027400387771 0 0.02762135864 0.02762135864 0 
0.027842329509 0.027842329509 0 0.028063300378 0.028063300378 0 0.028284271247 0.028284271247 0 
0.020087174082 0.022282401967 0 0.020296415478 0.022514510321 0 0.020505656875 0.022746618674 0 
0.020714898272 0.022978727028 0 0.020924139669 0.023210835382 0 0.021133381065 0.023442943736 0 
0.021342622462 0.02367505209 0 0.021551863859 0.023907160444 0 0.021761105255 0.024139268797 0 
0.021970346652 0.024371377151 0 0.022179588049 0.024603485505 0 0.022388829445 0.024835593859 0 
0.022598070842 0.025067702213 0 0.022807312239 0.025299810566 0 0.023016553635 0.02553191892 0 
0.023225795032 0.025764027274 0 0.023435036429 0.025996135628 0 0.023644277825 0.026228243982 0 
0.023853519222 0.026460352336 0 0.024062760619 0.026692460689 0 0.024272002015 0.026924569043 0 
0.024481243412 0.027156677397 0 0.024690484809 0.027388785751 0 0.024899726206 0.027620894105 0 
0.025108967602 0.027853002458 0 0.025318208999 0.028085110812 0 0.025527450396 0.028317219166 0 
0.025736691792 0.02854932752 0 0.025945933189 0.028781435874 0 0.026155174586 0.029013544228 0 
0.026364415982 0.029245652581 0 0.026573657379 0.029477760935 0 0.026782898776 0.029709869289 0 
0.018908943792 0.023290595627 0 0.019105911956 0.023533205998 0 0.019302880121 0.023775816369 0 
0.019499848285 0.024018426741 0 0.01969681645 0.024261037112 0 0.019893784614 0.024503647483 0 
0.020090752779 0.024746257854 0 0.020287720943 0.024988868225 0 0.020484689108 0.025231478596 0 
0.020681657272 0.025474088967 0 0.020878625437 0.025716699338 0 0.021075593601 0.02595930971 0 
0.021272561766 0.026201920081 0 0.02146952993 0.026444530452 0 0.021666498095 0.026687140823 0 
0.021863466259 0.026929751194 0 0.022060434424 0.027172361565 0 0.022257402588 0.027414971936 0 
0.022454370753 0.027657582307 0 0.022651338917 0.027900192678 0 0.022848307082 0.02814280305 0 
0.023045275246 0.028385413421 0 0.023242243411 0.028628023792 0 0.023439211575 0.028870634163 0 
0.02363617974 0.029113244534 0 0.023833147904 0.029355854905 0 0.024030116069 0.029598465276 0 
0.024227084233 0.029841075647 0 0.024424052398 0.030083686019 0 0.024621020562 0.03032629639 0 
0.024817988727 0.030568906761 0 0.025014956891 0.030811517132 0 0.025211925056 0.031054127503 0 
0.017683535086 0.024234120303 0 0.017867738576 0.024486559056 0 0.018051942067 0.02473899781 0 
0.018236145557 0.024991436563 0 0.018420349048 0.025243875316 0 0.018604552538 0.025496314069 0 
0.018788756029 0.025748752822 0 0.018972959519 0.026001191575 0 0.019157163009 0.026253630329 0 
0.0193413665 0.026506069082 0 0.01952556999 0.026758507835 0 0.019709773481 0.027010946588 0 
0.019893976971 0.027263385341 0 0.020078180462 0.027515824094 0 0.020262383952 0.027768262847 0 
0.020446587443 0.028020701601 0 0.020630790933 0.028273140354 0 0.020814994424 0.028525579107 0 
0.020999197914 0.02877801786 0 0.021183401405 0.029030456613 0 0.021367604895 0.029282895366 0 
0.021551808386 0.02953533412 0 0.021736011876 0.029787772873 0 0.021920215367 0.030040211626 0 
0.022104418857 0.030292650379 0 0.022288622348 0.030545089132 0 0.022472825838 0.030797527885 0 
0.022657029329 0.031049966639 0 0.022841232819 0.031302405392 0 0.023025436309 0.031554844145 0 
0.0232096398 0.031807282898 0 0.02339384329 0.032059721651 0 0.023578046781 0.032312160404 0 
0.016416292602 0.025109865337 0 0.016587295649 0.025371426434 0 0.016758298697 0.025632987531 0 
0.016929301745 0.025894548628 0 0.017100304793 0.026156109726 0 0.017271307841 0.026417670823 0 
0.017442310889 0.02667923192 0 0.017613313937 0.026940793017 0 0.017784316985 0.027202354115 0 
0.017955320033 0.027463915212 0 0.018126323081 0.027725476309 0 0.018297326129 0.027987037406 0 
0.018468329177 0.028248598504 0 0.018639332225 0.028510159601 0 0.018810335273 0.028771720698 0 
0.018981338321 0.029033281795 0 0.019152341368 0.029294842893 0 0.019323344416 0.02955640399 0 
0.019494347464 0.029817965087 0 0.019665350512 0.030079526184 0 0.01983635356 0.030341087282 0 
0.020007356608 0.030602648379 0 0.020178359656 0.030864209476 0 0.020349362704 0.031125770573 0 
0.020520365752 0.031387331671 0 0.0206913688 0.031648892768 0 0.020862371848 0.031910453865 0 
0.021033374896 0.032172014962 0 0.021204377944 0.03243357606 0 0.021375380992 0.032695137157 0 
0.02154638404 0.032956698254 0 0.021717387087 0.033218259351 0 0.021888390135 0.033479820449 0 
0.01511280733 0.025915305412 0 0.015270232406 0.02618525651 0 0.015427657482 0.026455207609 0 
0.015585082559 0.026725158707 0 0.015742507635 0.026995109805 0 0.015899932711 0.027265060903 0 
0.016057357788 0.027535012001 0 0.016214782864 0.027804963099 0 0.01637220794 0.028074914197 0 
0.016529633017 0.028344865295 0 0.016687058093 0.028614816393 0 0.016844483169 0.028884767491 0 
0.017001908246 0.029154718589 0 0.017159333322 0.029424669687 0 0.017316758398 0.029694620785 0 
0.017474183475 0.029964571883 0 0.017631608551 0.030234522981 0 0.017789033628 0.030504474079 0 
0.017946458704 0.030774425177 0 0.01810388378 0.031044376275 0 0.018261308857 0.031314327373 0 
0.018418733933 0.031584278471 0 0.018576159009 0.031854229569 0 0.018733584086 0.032124180667 0 
0.018891009162 0.032394131766 0 0.019048434238 0.032664082864 0 0.019205859315 0.032934033962 0 
0.019363284391 0.03320398506 0 0.019520709467 0.033473936158 0 0.019678134544 0.033743887256 0 
0.01983555962 0.034013838354 0 0.019992984696 0.034283789452 0 0.020150409773 0.03455374055 0 
0.013778837792 0.026648520205 0 0.013922367352 0.026926108957 0 0.014065896912 0.027203697709 0 
0.014209426473 0.027481286461 0 0.014352956033 0.027758875213 0 0.014496485593 0.028036463966 0 
0.014640015154 0.028314052718 0 0.014783544714 0.02859164147 0 0.014927074274 0.028869230222 0 
0.015070603835 0.029146818974 0 0.015214133395 0.029424407726 0 0.015357662955 0.029701996478 0 
0.015501192516 0.029979585231 0 0.015644722076 0.030257173983 0 0.015788251636 0.030534762735 0 
0.015931781197 0.030812351487 0 0.016075310757 0.031089940239 0 0.016218840317 0.031367528991 0 
0.016362369878 0.031645117743 0 0.016505899438 0.031922706495 0 0.016649428998 0.032200295248 0 
0.016792958559 0.032477884 0 0.016936488119 0.032755472752 0 0.017080017679 0.033033061504 0 
0.01722354724 0.033310650256 0 0.0173670768 0.033588239008 0 0.01751060636 0.03386582776 0 
0.017654135921 0.034143416513 0 0.017797665481 0.034421005265 0 0.017941195041 0.034698594017 0 
0.018084724602 0.034976182769 0 0.018228254162 0.035253771521 0 0.018371783722 0.035531360273 0 
0.012420230416 0.027308201633 0 0.012549607816 0.027592662066 0 0.012678985216 0.0278771225 0 
0.012808362617 0.028161582934 0 0.012937740017 0.028446043367 0 0.013067117417 0.028730503801 0 
0.013196494817 0.029014964235 0 0.013325872217 0.029299424668 0 0.013455249617 0.029583885102 0 
0.013584627018 0.029868345536 0 0.013714004418 0.030152805969 0 0.013843381818 0.030437266403 0 
0.013972759218 0.030721726837 0 0.014102136618 0.03100618727 0 0.014231514018 0.031290647704 0 
0.014360891419 0.031575108138 0 0.014490268819 0.031859568571 0 0.014619646219 0.032144029005 0 
0.014749023619 0.032428489439 0 0.014878401019 0.032712949873 0 0.015007778419 0.032997410306 0 
0.01513715582 0.03328187074 0 0.01526653322 0.033566331174 0 0.01539591062 0.033850791607 0 
0.01552528802 0.034135252041 0 0.01565466542 0.034419712475 0 0.01578404282 0.034704172908 0 
0.015913420221 0.034988633342 0 0.016042797621 0.035273093776 0 0.016172175021 0.035557554209 0 
0.016301552421 0.035842014643 0 0.016430929821 0.036126475077 0 0.016560307221 0.03641093551 0 
0.011042841287 0.027893649032 0 0.011157870884 0.028184207876 0 0.01127290048 0.02847476672 0 
0.011387930077 0.028765325564 0 0.011502959674 0.029055884408 0 0.011617989271 0.029346443252 0 
0.011733018867 0.029637002096 0 0.011848048464 0.02992756094 0 0.011963078061 0.030218119785 0 
0.012078107657 0.030508678629 0 0.012193137254 0.030799237473 0 0.012308166851 0.031089796317 0 
0.012423196448 0.031380355161 0 0.012538226044 0.031670914005 0 0.012653255641 0.031961472849 0 
0.012768285238 0.032252031693 0 0.012883314835 0.032542590537 0 0.012998344431 0.032833149381 0 
0.013113374028 0.033123708225 0 0.013228403625 0.033414267069 0 0.013343433222 0.033704825914 0 
0.013458462818 0.033995384758 0 0.013573492415 0.034285943602 0 0.013688522012 0.034576502446 0 
0.013803551609 0.03486706129 0 0.013918581205 0.035157620134 0 0.014033610802 0.035448178978 0 
0.014148640399 0.035738737822 0 0.014263669996 0.036029296666 0 0.014378699592 0.03631985551 0 
0.014493729189 0.036610414354 0 0.014608758786 0.036900973198 0 0.014723788382 0.037191532042 0 
0.0096524612915 0.028404752965 0 0.0097530077632 0.028700635809 0 0.009853554235 0.028996518652 0 
0.0099541007068 0.029292401495 0 0.010054647179 0.029588284339 0 0.01015519365 0.029884167182 0 
0.010255740122 0.030180050026 0 0.010356286594 0.030475932869 0 0.010456833066 0.030771815712 0 
0.010557379538 0.031067698556 0 0.010657926009 0.031363581399 0 0.010758472481 0.031659464243 0 
0.010859018953 0.031955347086 0 0.010959565425 0.032251229929 0 0.011060111896 0.032547112773 0 
0.011160658368 0.032842995616 0 0.01126120484 0.033138878459 0 0.011361751312 0.033434761303 0 
0.011462297784 0.033730644146 0 0.011562844255 0.03402652699 0 0.011663390727 0.034322409833 0 
0.011763937199 0.034618292676 0 0.011864483671 0.03491417552 0 0.011965030143 0.035210058363 0 
0.012065576614 0.035505941207 0 0.012166123086 0.03580182405 0 0.012266669558 0.036097706893 0 
0.01236721603 0.036393589737 0 0.012467762501 0.03668947258 0 0.012568308973 0.036985355424 0 
0.012668855445 0.037281238267 0 0.012769401917 0.03757712111 0 0.012869948389 0.037873003954 0 
0.0082547464454 0.028841968746 0 0.0083407333875 0.02914240592 0 0.0084267203296 0.029442843094 0 
0.0085127072718 0.029743280269 0 0.0085986942139 0.030043717443 0 0.0086846811561 0.030344154618 0 
0.0087706680982 0.030644591792 0 0.0088566550403 0.030945028967 0 0.0089426419825 0.031245466141 0 
0.0090286289246 0.031545903316 0 0.0091146158668 0.03184634049 0 0.0092006028089 0.032146777664 0 
0.009286589751 0.032447214839 0 0.0093725766932 0.032747652013 0 0.0094585636353 0.033048089188 0 
0.0095445505774 0.033348526362 0 0.0096305375196 0.033648963537 0 0.0097165244617 0.033949400711 0 
0.0098025114039 0.034249837885 0 0.009888498346 0.03455027506 0 0.0099744852881 0.034850712234 0 
0.01006047223 0.035151149409 0 0.010146459172 0.035451586583 0 0.010232446115 0.035752023758 0 
0.010318433057 0.036052460932 0 0.010404419999 0.036352898106 0 0.010490406941 0.036653335281 0 
0.010576393883 0.036953772455 0 0.010662380825 0.03725420963 0 0.010748367767 0.037554646804 0 
0.01083435471 0.037855083979 0 0.010920341652 0.038155521153 0 0.011006328594 0.038455958327 0 
0.0068551548722 0.029206281031 0 0.0069265627354 0.029510513125 0 0.0069979705987 0.029814745219 0 
0.0070693784619 0.030118977314 0 0.0071407863252 0.030423209408 0 0.0072121941885 0.030727441502 0 
0.0072836020517 0.031031673596 0 0.007355009915 0.03133590569 0 0.0074264177782 0.031640137784 0 
0.0074978256415 0.031944369878 0 0.0075692335047 0.032248601972 0 0.007640641368 0.032552834066 0 
0.0077120492312 0.03285706616 0 0.0077834570945 0.033161298254 0 0.0078548649577 0.033465530348 0 
0.007926272821 0.033769762442 0 0.0079976806842 0.034073994536 0 0.0080690885475 0.034378226631 0 
0.0081404964107 0.034682458725 0 0.008211904274 0.034986690819 0 0.0082833121372 0.035290922913 0 
0.0083547200005 0.035595155007 0 0.0084261278637 0.035899387101 0 0.008497535727 0.036203619195 0 
0.0085689435902 0.036507851289 0 0.0086403514535 0.036812083383 0 0.0087117593167 0.037116315477 0 
0.00878316718 0.037420547571 0 0.0088545750432 0.037724779665 0 0.0089259829065 0.038029011759 0 
0.0089973907698 0.038333243854 0 0.009068798633 0.038637475948 0 0.0091402064963 0.038941708042 0 
0.0054588915724 0.029499161052 0 0.0055157550262 0.02980644398 0 0.0055726184801 0.030113726908 0 
0.005629481934 0.030421009835 0 0.0056863453879 0.030728292763 0 0.0057432088418 0.031035575691 0 
0.0058000722956 0.031342858618 0 0.0058569357495 0.031650141546 0 0.0059137992034 0.031957424474 0 
0.0059706626573 0.032264707401 0 0.0060275261112 0.032571990329 0 0.006084389565 0.032879273256 0 
0.0061412530189 0.033186556184 0 0.0061981164728 0.033493839112 0 0.0062549799267 0.033801122039 0 
0.0063118433805 0.034108404967 0 0.0063687068344 0.034415687895 0 0.0064255702883 0.034722970822 0 
0.0064824337422 0.03503025375 0 0.0065392971961 0.035337536677 0 0.0065961606499 0.035644819605 0 
0.0066530241038 0.035952102533 0 0.0067098875577 0.03625938546 0 0.0067667510116 0.036566668388 0 
0.0068236144655 0.036873951316 0 0.0068804779193 0.037181234243 0 0.0069373413732 0.037488517171 0 
0.0069942048271 0.037795800099 0 0.007051068281 0.038103083026 0 0.0071079317348 0.038410365954 0 
0.0071647951887 0.038717648881 0 0.0072216586426 0.039024931809 0 0.0072785220965 0.039332214737 0 
0.0040708617533 0.02972251814 0 0.0041132665632 0.030032127704 0 0.0041556713732 0.030341737268 0 
0.0041980761831 0.030651346832 0 0.004240480993 0.030960956396 0 0.004282885803 0.03127056596 0 
0.0043252906129 0.031580175524 0 0.0043676954228 0.031889785088 0 0.0044101002328 0.032199394652 0 
0.0044525050427 0.032509004216 0 0.0044949098526 0.03281861378 0 0.0045373146625 0.033128223344 0 
0.0045797194725 0.033437832908 0 0.0046221242824 0.033747442472 0 0.0046645290923 0.034057052035 0 
0.0047069339023 0.034366661599 0 0.0047493387122 0.034676271163 0 0.0047917435221 0.034985880727 0 
0.0048341483321 0.035295490291 0 0.004876553142 0.035605099855 0 0.0049189579519 0.035914709419 0 
0.0049613627618 0.036224318983 0 0.0050037675718 0.036533928547 0 0.0050461723817 0.036843538111 0 
0.0050885771916 0.037153147675 0 0.0051309820016 0.037462757239 0 0.0051733868115 0.037772366803 0 
0.0052157916214 0.038081976367 0 0.0052581964314 0.038391585931 0 0.0053006012413 0.038701195495 0 
0.0053430060512 0.039010805059 0 0.0053854108611 0.039320414623 0 0.0054278156711 0.039630024187 0 
0.0026956331369 0.029878647258 0 0.0027237126488 0.030189883167 0 0.0027517921606 0.030501119076 0 
0.0027798716725 0.030812354985 0 0.0028079511843 0.031123590894 0 0.0028360306961 0.031434826803 0 
0.002864110208 0.031746062712 0 0.0028921897198 0.032057298621 0 0.0029202692317 0.03236853453 0 
0.0029483487435 0.032679770439 0 0.0029764282554 0.032991006348 0 0.0030045077672 0.033302242257 0 
0.003032587279 0.033613478166 0 0.0030606667909 0.033924714075 0 0.0030887463027 0.034235949984 0 
0.0031168258146 0.034547185893 0 0.0031449053264 0.034858421801 0 0.0031729848383 0.03516965771 0 
0.0032010643501 0.035480893619 0 0.0032291438619 0.035792129528 0 0.0032572233738 0.036103365437 0 
0.0032853028856 0.036414601346 0 0.0033133823975 0.036725837255 0 0.0033414619093 0.037037073164 0 
0.0033695414212 0.037348309073 0 0.003397620933 0.037659544982 0 0.0034257004448 0.037970780891 0 
0.0034537799567 0.0382820168 0 0.0034818594685 0.038593252709 0 0.0035099389804 0.038904488618 0 
0.0035380184922 0.039215724527 0 0.0035660980041 0.039526960436 0 0.0035941775159 0.039838196345 0 
0.0013374073245 0.029970174201 0 0.0013513386508 0.030282363516 0 0.0013652699771 0.03059455283 0 
0.0013792013033 0.030906742145 0 0.0013931326296 0.03121893146 0 0.0014070639559 0.031531120774 0 
0.0014209952822 0.031843310089 0 0.0014349266085 0.032155499403 0 0.0014488579348 0.032467688718 0 
0.0014627892611 0.032779878033 0 0.0014767205874 0.033092067347 0 0.0014906519137 0.033404256662 0 
0.00150458324 0.033716445976 0 0.0015185145663 0.034028635291 0 0.0015324458926 0.034340824606 0 
0.0015463772189 0.03465301392 0 0.0015603085452 0.034965203235 0 0.0015742398715 0.035277392549 0 
0.0015881711978 0.035589581864 0 0.0016021025241 0.035901771178 0 0.0016160338504 0.036213960493 0 
0.0016299651767 0.036526149808 0 0.001643896503 0.036838339122 0 0.0016578278293 0.037150528437 0 
0.0016717591556 0.037462717751 0 0.0016856904819 0.037774907066 0 0.0016996218082 0.038087096381 0 
0.0017135531345 0.038399285695 0 0.0017274844608 0.03871147501 0 0.0017414157871 0.039023664324 0 
0.0017553471134 0.039335853639 0 0.0017692784396 0.039648042954 0 0.0017832097659 0.039960232268 0 
4.9065389334e-18 0.03 0 4.9832036042e-18 0.0303125 0 5.0598682751e-18 0.030625 0 
5.1365329459e-18 0.0309375 0 5.2131976167e-18 0.03125 0 5.2898622876e-18 0.0315625 0 
5.3665269584e-18 0.031875 0 5.4431916292e-18 0.0321875 0 5.5198563001e-18 0.0325 0 
5.5965209709e-18 0.0328125 0 5.6731856417e-18 0.033125 0 5.7498503126e-18 0.0334375 0 
5.8265149834e-18 0.03375 0 5.9031796542e-18 0.0340625 0 5.9798443251e-18 0.034375 0 
6.0565089959e-18 0.0346875 0 6.1331736667e-18 0.035 0 6.2098383376e-18 0.0353125 0 
6.2865030084e-18 0.035625 0 6.3631676792e-18 0.0359375 0 6.4398323501e-18 0.03625 0 
6.5164970209e-18 0.0365625 0 6.5931616917e-18 0.036875 0 6.6698263626e-18 0.0371875 0 
6.7464910334e-18 0.0375 0 6.8231557042e-18 0.0378125 0 6.8998203751e-18 0.038125 0 
6.9764850459e-18 0.0384375 0 7.0531497167e-18 0.03875 0 7.1298143876e-18 0.0390625 0 
7.2064790584e-18 0.039375 0 7.2831437292e-18 0.0396875 0 7.3598084001e-18 0.04 0 

CELLS 1025 4096
OFFSETS vtktypeint64
0 4 8 12 16 20 24 28 32 
36 40 44 48 52 56 60 64 68 
72 76 80 84 88 92 96 100 104 
108 112 116 120 124 128 132 136 140 
144 148 152 156 160 164 168 172 176 
180 184 188 192 196 200 204 208 212 
216 220 224 228 232 236 240 244 248 
252 256 260 264 268 272 276 280 284 
288 292 296 300 304 308 312 316 320 
324 328 332 336 340 344 348 352 356 
360 364 368 372 376 380 384 388 392 
396 400 404 408 412 416 420 424 428 
432 436 440 444 448 452 456 460 464 
468 472 476 480 484 488 492 496 500 
504 508 512 516 520 524 528 532 536 
540 544 548 552 556 560 564 568 572 
576 580 584 588 592 596 600 604 608 
612 616 620 624 628 632 636 640 644 
648 652 656 660 664 668 672 676 680 
684 688 692 696 700 704 708 712 716 
720 724 728 732 736 740 744 748 752 
756 760 764 768 772 776 780 784 788 
792 796 800 804 808 812 816 820 824 
828 832 836 840 844 848 852 856 860 
864 868 872 876 880 884 888 892 896 
900 904 908 912 916 920 924 928 932 
936 940 944 948 952 956 960 964 968 
972 976 980 984 988 992 996 1000 1004 
1008 1012 1016 1020 1024 1028 1032 1036 1040 
1044 1048 1052 1056 1060 1064 1068 1072 1076 
1080 1084 1088 1092 1096 1100 1104 1108 1112 
1116 1120 1124 1128 1132 1136 1140 1144 1148 
1152 1156 1160 1164 1168 1172 1176 1180 1184 
1188 1192 1196 1200 1204 1208 1212 1216 1220 
1224 1228 1232 1236 1240 1244 1248 1252 1256 
1260 1264 1268 1272 1276 1280 1284 1288 1292 
1296 1300 1304 1308 1312 1316 1320 1324 1328 
1332 1336 1340 1344 1348 1352 1356 1360 1364 
1368 1372 1376 1380 1384 1388 1392 1396 1400 
1404 1408 1412 1416 1420 1424 1428 1432 1436 
1440 1444 1448 1452 1456 1460 1464 1468 1472 
1476 1480 1484 1488 1492 1496 1500 1504 1508 
1512 1516 1520 1524 1528 1532 1536 1540 1544 
1548 1552 1556 1560 1564 1568 1572 1576 1580 
1584 1588 1592 1596 1600 1604 1608 1612 1616 
1620 1624 1628 1632 1636 1640 1644 1648 1652 
1656 1660 1664 1668 1672 1676 1680 1684 1688 
1692 1696 1700 1704 1708 1712 1716 1720 1724 
1728 1732 1736 1740 1744 1748 1752 1756 1760 
1764 1768 1772 1776 1780 1784 1788 1792 1796 
1800 1804 1808 1812 1816 1820 1824 1828 1832 
1836 1840 1844 1848 1852 1856 1860 1864 1868 
1872 1876 1880 1884 1888 1892 1896 1900 1904 
1908 1912 1916 1920 1924 1928 1932 1936 1940 
1944 1948 1952 1956 1960 1964 1968 1972 1976 
1980 1984 1988 1992 1996 2000 2004 2008 2012 
2016 2020 2024 2028 2032 2036 2040 2044 2048 
2052 2056 2060 2064 2068 2072 2076 2080 2084 
2088 2092 2096 2100 2104 2108 2112 2116 2120 
2124 2128 2132 2136 2140 2144 2148 2152 2156 
2160 2164 2168 2172 2176 2180 2184 2188 2192 
2196 2200 2204 2208 2212 2216 2220 2224 2228 
2232 2236 2240 2244 2248 2252 2256 2260 2264 
2268 2272 2276 2280 2284 2288 2292 2296 2300 
2304 2308 2312 2316 2320 2324 2328 2332 2336 
2340 2344 2348 2352 2356 2360 2364 2368 2372 
2376 2380 2384 2388 2392 2396 2400 2404 2408 
2412 2416 2420 2424 2428 2432 2436 2440 2444 
2448 2452 2456 2460 2464 2468 2472 2476 2480 
2484 2488 2492 2496 2500 2504 2508 2512 2516 
2520 2524 2528 2532 2536 2540 2544 2548 2552 
2556 2560 2564 2568 2572 2576 2580 2584 2588 
2592 2596 2600 2604 2608 2612 2616 2620 2624 
2628 2632 2636 2640 2644 2648 2652 2656 2660 
2664 2668 2672 2676 2680 2684 2688 2692 2696 
2700 2704 2708 2712 2716 2720 2724 2728 2732 
2736 2740 2744 2748 2752 2756 2760 2764 2768 
2772 2776 2780 2784 2788 2792 2796 2800 2804 
2808 2812 2816 2820 2824 2828 2832 2836 2840 
2844 2848 2852 2856 2860 2864 2868 2872 2876 
2880 2884 2888 2892 2896 2900 2904 2908 2912 
2916 2920 2924 2928 2932 2936 2940 2944 2948 
2952 2956 2960 2964 2968 2972 2976 2980 2984 
2988 2992 2996 3000 3004 3008 3012 3016 3020 
3024 3028 3032 3036 3040 3044 3048 3052 3056 
3060 3064 3068 3072 3076 3080 3084 3088 3092 
3096 3100 3104 3108 3112 3116 3120 3124 3128 
3132 3136 3140 3144 3148 3152 3156 3160 3164 
3168 3172 3176 3180 3184 3188 3192 3196 3200 
3204 3208 3212 3216 3220 3224 3228 3232 3236 
3240 3244 3248 3252 3256 3260 3264 3268 3272 
3276 3280 3284 3288 3292 3296 3300 3304 3308 
3312 3316 3320 3324 3328 3332 3336 3340 3344 
3348 3352 3356 3360 3364 3368 3372 3376 3380 
3384 3388 3392 3396 3400 3404 3408 3412 3416 
3420 3424 3428 3432 3436 3440 3444 3448 3452 
3456 3460 3464 3468 3472 3476 3480 3484 3488 
3492 3496 3500 3504 3508 3512 3516 3520 3524 
3528 3532 3536 3540 3544 3548 3552 3556 3560 
3564 3568 3572 3576 3580 3584 3588 3592 3596 
3600 3604 3608 3612 3616 3620 3624 3628 3632 
3636 3640 3644 3648 3652 3656 3660 3664 3668 
3672 3676 3680 3684 3688 3692 3696 3700 3704 
3708 3712 3716 3720 3724 3728 3732 3736 3740 
3744 3748 3752 3756 3760 3764 3768 3772 3776 
3780 3784 3788 3792 3796 3800 3804 3808 3812 
3816 3820 3824 3828 3832 3836 3840 3844 3848 
3852 3856 3860 3864 3868 3872 3876 3880 3884 
3888 3892 3896 3900 3904 3908 3912 3916 3920 
3924 3928 3932 3936 3940 3944 3948 3952 3956 
3960 3964 3968 3972 3976 3980 3984 3988 3992 
3996 4000 4004 4008 4012 4016 4020 4024 4028 
4032 4036 4040 4044 4048 4052 4056 4060 4064 
4068 4072 4076 4080 4084 4088 4092 4096 
CONNECTIVITY vtktypeint64
0 33 34 1 1 34 35 2 2 
35 36 3 3 36 37 4 4 37 
38 5 5 38 39 6 6 39 40 
7 7 40 41 8 8 41 42 9 
9 42 43 10 10 43 44 11 11 
44 45 12 12 45 46 13 13 46 
47 14 14 47 48 15 15 48 49 
16 16 49 50 17 17 50 51 18 
18 51 52 19 19 52 53 20 20 
53 54 21 21 54 55 22 22 55 
56 23 23 56 57 24 24 57 58 
25 25 58 59 26 26 59 60 27 
27 60 61 28 28 61 62 29 29 
62 63 30 30 63 64 31 31 64 
65 32 33 66 67 34 34 67 68 
35 35 68 69 36 36 69 70 37 
37 70 71 38 38 71 72 39 39 
72 73 40 40 73 74 41 41 74 
75 42 42 75 76 43 43 76 77 
44 44 77 78 45 45 78 79 46 
46 79 80 47 47 80 81 48 48 
81 82 49 49 82 83 50 50 83 
84 51 51 84 85 52 52 85 86 
53 53 86 87 54 54 87 88 55 
55 88 89 56 56 89 90 57 57 
90 91 58 58 91 92 59 59 92 
93 60 60 93 94 61 61 94 95 
62 62 95 96 63 63 96 97 64 
64 97 98 65 66 99 100 67 67 
100 101 68 68 101 102 69 69 102 
103 70 70 103 104 71 71 104 105 
72 72 105 106 73 73 106 107 74 
74 107 108 75 75 108 109 76 76 
109 110 77 77 110 111 78 78 111 
112 79 79 112 113 80 80 113 114 
81 81 114 115 82 82 115 116 83 
83 116 117 84 84 117 118 85 85 
118 119 86 86 119 120 87 87 120 
121 88 88 121 122 89 89 122 123 
90 90 123 124 91 91 124 125 92 
92 125 126 93 93 126 127 94 94 
127 128 95 95 128 129 96 96 129 
130 97 97 130 131 98 99 132 133 
100 100 133 134 101 101 134 135 102 
102 135 136 103 103 136 137 104 104 
137 138 105 105 138 139 106 106 139 
140 107 107 140 141 108 108 141 142 
109 109 142 143 110 110 143 144 111 
111 144 145 112 112 145 146 113 113 
146 147 114 114 147 148 115 115 148 
149 116 116 149 150 117 117 150 151 
118 118 151 152 119 119 152 153 120 
120 153 154 121 121 154 155 122 122 
155 156 123 123 156 157 124 124 157 
158 125 125 158 159 126 126 159 160 
127 127 160 161 128 128 161 162 129 
129 162 163 130 130 163 164 131 132 
165 166 133 133 166 167 134 134 167 
168 135 135 168 169 136 136 169 170 
137 137 170 171 138 138 171 172 139 
139 172 173 140 140 173 174 141 141 
174 175 142 142 175 176 143 143 176 
177 144 144 177 178 145 145 178 179 
146 146 179 180 147 147 180 181 148 
148 181 182 149 149 182 183 150 150 
183 184 151 151 184 185 152 152 185 
186 153 153 186 187 154 154 187 188 
155 155 188 189 156 156 189 190 157 
157 190 191 158 158 191 192 159 159 
192 193 160 160 193 194 161 161 194 
195 162 162 195 196 163 163 196 197 
164 165 198 199 166 166 199 200 167 
167 200 201 168 168 201 202 169 169 
202 203 170 170 203 204 171 171 204 
205 172 172 205 206 173 173 206 207 
174 174 207 208 175 175 208 209 176 
176 209 210 177 177 210 211 178 178 
211 212 179 179 212 213 180 180 213 
214 181 181 214 215 182 182 215 216 
183 183 216 217 184 184 217 218 185 
185 218 219 186 186 219 220 187 187 
220 221 188 188 221 222 189 189 222 
223 190 190 223 224 191 191 224 225 
192 192 225 226 193 193 226 227 194 
194 227 228 195 195 228 229 196 196 
229 230 197 198 231 232 199 199 232 
233 200 200 233 234 201 201 234 235 
202 202 235 236 203 203 236 237 204 
204 237 238 205 205 238 239 206 206 
239 240 207 207 240 241 208 208 241 
242 209 209 242 243 210 210 243 244 
211 211 244 245 212 212 245 246 213 
213 246 247 214 214 247 248 215 215 
248 249 216 216 249 250 217 217 250 
251 218 218 251 252 219 219 252 253 
220 220 253 254 221 221 254 255 222 
222 255 256 223 223 256 257 224 224 
257 258 225 225 258 259 226 226 259 
260 227 227 260 261 228 228 261 262 
229 229 262 263 230 231 264 265 232 
232 265 266 233 233 266 267 234 234 
267 268 235 235 268 269 236 236 269 
270 237 237 270 271 238 238 271 272 
239 239 272 273 240 240 273 274 241 
241 274 275 242 242 275 276 243 243 
276 277 244 244 277 278 245 245 278 
279 246 246 279 280 247 247 280 281 
248 248 281 282 249 249 282 283 250 
250 283 284 251 251 284 285 252 252 
285 286 253 253 286 287 254 254 287 
288 255 255 288 289 256 256 289 290 
257 257 290 291 258 258 291 292 259 
259 292 293 260 260 293 294 261 261 
294 295 262 262 295 296 263 264 297 
298 265 265 298 299 266 266 299 300 
267 267 300 301 268 268 301 302 269 
269 302 303 270 270 303 304 271 271 
304 305 272 272 305 306 273 273 306 
307 274 274 307 308 275 275 308 309 
276 276 309 310 277 277 310 311 278 
278 311 312 279 279 312 313 280 280 
313 314 281 281 314 315 282 282 315 
316 283 283 316 317 284 284 317 318 
285 285 318 319 286 286 319 320 287 
287 320 321 288 288 321 322 289 289 
322 323 290 290 323 324 291 291 324 
325 292 292 325 326 293 293 326 327 
294 294 327 328 295 295 328 329 296 
297 330 331 298 298 331 332 299 299 
332 333 300 300 333 334 301 301 334 
335 302 302 335 336 303 303 336 337 
304 304 337 338 305 305 338 339 306 
306 339 340 307 307 340 341 308 308 
341 342 309 309 342 343 310 310 343 
344 311 311 344 345 312 312 345 346 
313 313 346 347 314 314 347 348 315 
315 348 349 316 316 349 350 317 317 
350 351 318 318 351 352 319 319 352 
353 320 320 353 354 321 321 354 355 
322 322 355 356 323 323 356 357 324 
324 357 358 325 325 358 359 326 326 
359 360 327 327 360 361 328 328 361 
362 329 330 363 364 331 331 364 365 
332 332 365 366 333 333 366 367 334 
334 367 368 335 335 368 369 336 336 
369 370 337 337 370 371 338 338 371 
372 339 339 372 373 340 340 373 374 
341 341 374 375 342 342 375 376 343 
343 376 377 344 344 377 378 345 345 
378 379 346 346 379 380 347 347 380 
381 348 348 381 382 349 349 382 383 
350 350 383 384 351 351 384 385 352 
352 385 386 353 353 386 387 354 354 
387 388 355 355 388 389 356 356 389 
390 357 357 390 391 358 358 391 392 
359 359 392 393 360 360 393 394 361 
361 394 395 362 363 396 397 364 364 
397 398 365 365 398 399 366 366 399 
400 367 367 400 401 368 368 401 402 
369 369 402 403 370 370 403 404 371 
371 404 405 372 372 405 406 373 373 
406 407 374 374 407 408 375 375 408 
409 376 376 409 410 377 377 410 411 
378 378 411 412 379 379 412 413 380 
380 413 414 381 381 414 415 382 382 
415 416 383 383 416 417 384 384 417 
418 385 385 418 419 386 386 419 420 
387 387 420 421 388 388 421 422 389 
389 422 423 390 390 423 424 391 391 
424 425 392 392 425 426 393 393 426 
427 394 394 427 428 395 396 429 430 
397 397 430 431 398 398 431 432 399 
399 432 433 400 400 433 434 401 401 
434 435 402 402 435 436 403 403 436 
437 404 404 437 438 405 405 438 439 
406 406 439 440 407 407 440 441 408 
408 441 442 409 409 442 443 410 410 
443 444 411 411 444 445 412 412 445 
446 413 413 446 447 414 414 447 448 
415 415 448 449 416 416 449 450 417 
417 450 451 418 418 451 452 419 419 
452 453 420 420 453 454 421 421 454 
455 422 422 455 456 423 423 456 457 
424 424 457 458 425 425 458 459 426 
426 459 460 427 427 460 461 428 429 
462 463 430 430 463 464 431 431 464 
465 432 432 465 466 433 433 466 467 
434 434 467 468 435 435 468 469 436 
436 469 470 437 437 470 471 438 438 
471 472 439 439 472 473 440 440 473 
474 441 441 474 475 442 442 475 476 
443 443 476 477 444 444 477 478 445 
445 478 479 446 446 479 480 447 447 
480 481 448 448 481 482 449 449 482 
483 450 450 483 484 451 451 484 485 
452 452 485 486 453 453 486 487 454 
454 487 488 455 455 488 489 456 456 
489 490 457 457 490 491 458 458 491 
492 459 459 492 493 460 460 493 494 
461 462 495 496 463 463 496 497 464 
464 497 498 465 465 498 499 466 466 
499 500 467 467 500 501 468 468 501 
502 469 469 502 503 470 470 503 504 
471 471 504 505 472 472 505 506 473 
473 506 507 474 474 507 508 475 475 
508 509 476 476 509 510 477 477 510 
511 478 478 511 512 479 479 512 513 
480 480 513 514 481 481 514 515 482 
482 515 516 483 483 516 517 484 484 
517 518 485 485 518 519 486 486 519 
520 487 487 520 521 488 488 521 522 
489 489 522 523 490 490 523 524 491 
491 524 525 492 492 525 526 493 493 
526 527 494 495 528 529 496 496 529 
530 497 497 530 531 498 498 531 532 
499 499 532 533 500 500 533 534 501 
501 534 535 502 502 535 536 503 503 
536 537 504 504 537 538 505 505 538 
539 506 506 539 540 507 507 540 541 
508 508 541 542 509 509 542 543 510 
510 543 544 511 511 544 545 512 512 
545 546 513 513 546 547 514 514 547 
548 515 515 548 549 516 516 549 550 
517 517 550 551 518 518 551 552 519 
519 552 553 520 520 553 554 521 521 
554 555 522 522 555 556 523 523 556 
557 524 524 557 558 525 525 558 559 
526 526 559 560 527 528 561 562 529 
529 562 563 530 530 563 564 531 531 
564 565 532 532 565 566 533 533 566 
567 534 534 567 568 535 535 568 569 
536 536 569 570 537 537 570 571 538 
538 571 572 539 539 572 573 540 540 
573 574 541 541 574 575 542 542 575 
576 543 543 576 577 544 544 577 578 
545 545 578 579 546 546 579 580 547 
547 580 581 548 548 581 582 549 549 
582 583 550 550 583 584 551 551 584 
585 552 552 585 586 553 553 586 587 
554 554 587 588 555 555 588 589 556 
556 589 590 557 557 590 591 558 558 
591 592 559 559 592 593 560 561 594 
595 562 562 595 596 563 563 596 597 
564 564 597 598 565 565 598 599 566 
566 599 600 567 567 600 601 568 568 
601 602 569 569 602 603 570 570 603 
604 571 571 604 605 572 572 605 606 
573 573 606 607 574 574 607 608 575 
575 608 609 576 576 609 610 577 577 
610 611 578 578 611 612 579 579 612 
613 580 580 613 614 581 581 614 615 
582 582 615 616 583 583 616 617 584 
584 617 618 585 585 618 619 586 586 
619 620 587 587 620 621 588 588 621 
622 589 589 622 623 590 590 623 624 
591 591 624 625 592 592 625 626 593 
594 627 628 595 595 628 629 596 596 
629 630 597 597 630 631 598 598 631 
632 599 599 632 633 600 600 633 634 
601 601 634 635 602 602 635 636 603 
603 636 637 604 604 637 638 605 605 
638 639 606 606 639 640 607 607 640 
641 608 608 641 642 609 609 642 643 
610 610 643 644 611 611 644 645 612 
612 645 646 613 613 646 647 614 614 
647 648 615 615 648 649 616 616 649 
650 617 617 650 651 618 618 651 652 
619 619 652 653 620 620 653 654 621 
621 654 655 622 622 655 656 623 623 
656 657 624 624 657 658 625 625 658 
659 626 627 660 661 628 628 661 662 
629 629 662 663 630 630 663 664 631 
631 664 665 632 632 665 666 633 633 
666 667 634 634 667 668 635 635 668 
669 636 636 669 670 637 637 670 671 
638 638 671 672 639 639 672 673 640 
640 673 674 641 641 674 675 642 642 
675 676 643 643 676 677 644 644 677 
678 645 645 678 679 646 646 679 680 
647 647 680 681 648 648 681 682 649 
649 682 683 650 650 683 684 651 651 
684 685 652 652 685 686 653 653 686 
687 654 654 687 688 655 655 688 689 
656 656 689 690 657 657 690 691 658 
658 691 692 659 660 693 694 661 661 
694 695 662 662 695 696 663 663 696 
697 664 664 697 698 665 665 698 699 
666 666 699 700 667 667 700 701 668 
668 701 702 669 669 702 703 670 670 
703 704 671 671 704 705 672 672 705 
706 673 673 706 707 674 674 707 708 
675 675 708 709 676 676 709 710 677 
677 710 711 678 678 711 712 679 679 
712 713 680 680 713 714 681 681 714 
715 682 682 715 716 683 683 716 717 
684 684 717 718 685 685 718 719 686 
686 719 720 687 687 720 721 688 688 
721 722 689 689 722 723 690 690 723 
724 691 691 724 725 692 693 726 727 
694 694 727 728 695 695 728 729 696 
696 729 730 697 697 730 731 698 698 
731 732 699 699 732 733 700 700 733 
734 701 701 734 735 702 702 735 736 
703 703 736 737 704 704 737 738 705 
705 738 739 706 706 739 740 707 707 
740 741 708 708 741 742 709 709 742 
743 710 710 743 744 711 711 744 745 
712 712 745 746 713 713 746 747 714 
714 747 748 715 715 748 749 716 716 
749 750 717 717 750 751 718 718 751 
752 719 719 752 753 720 720 753 754 
721 721 754 755 722 722 755 756 723 
723 756 757 724 724 757 758 725 726 
759 760 727 727 760 761 728 728 761 
762 729 729 762 763 730 730 763 764 
731 731 764 765 732 732 765 766 733 
733 766 767 734 734 767 768 735 735 
768 769 736 736 769 770 737 737 770 
771 738 738 771 772 739 739 772 773 
740 740 773 774 741 741 774 775 742 
742 775 776 743 743 776 777 744 744 
777 778 745 745 778 779 746 746 779 
780 747 747 780 781 748 748 781 782 
749 749 782 783 750 750 783 784 751 
751 784 785 752 752 785 786 753 753 
786 787 754 754 787 788 755 755 788 
789 756 756 789 790 757 757 790 791 
758 759 792 793 760 760 793 794 761 
761 794 795 762 762 795 796 763 763 
796 797 764 764 797 798 765 765 798 
799 766 766 799 800 767 767 800 801 
768 768 801 802 769 769 802 803 770 
770 803 804 771 771 804 805 772 772 
805 806 773 773 806 807 774 774 807 
808 775 775 808 809 776 776 809 810 
777 777 810 811 778 778 811 812 779 
779 812 813 780 780 813 814 781 781 
814 815 782 782 815 816 783 783 816 
817 784 784 817 818 785 785 818 819 
786 786 819 820 787 787 820 821 788 
788 821 822 789 789 822 823 790 790 
823 824 791 792 825 826 793 793 826 
827 794 794 827 828 795 795 828 829 
796 796 829 830 797 797 830 831 798 
798 831 832 799 799 832 833 800 800 
833 834 801 801 834 835 802 802 835 
836 803 803 836 837 804 804 837 838 
805 805 838 839 806 806 839 840 807 
807 840 841 808 808 841 842 809 809 
842 843 810 810 843 844 811 811 844 
845 812 812 845 846 813 813 846 847 
814 814 847 848 815 815 848 849 816 
816 849 850 817 817 850 851 818 818 
851 852 819 819 852 853 820 820 853 
854 821 821 854 855 822 822 855 856 
823 823 856 857 824 825 858 859 826 
826 859 860 827 827 860 861 828 828 
861 862 829 829 862 863 830 830 863 
864 831 831 864 865 832 832 865 866 
833 833 866 867 834 834 867 868 835 
835 868 869 836 836 869 870 837 837 
870 871 838 838 871 872 839 839 872 
873 840 840 873 874 841 841 874 875 
842 842 875 876 843 843 876 877 844 
844 877 878 845 845 878 879 846 846 
879 880 847 847 880 881 848 848 881 
882 849 849 882 883 850 850 883 884 
851 851 884 885 852 852 885 886 853 
853 886 887 854 854 887 888 855 855 
888 889 856 856 889 890 857 858 891 
892 859 859 892 893 860 860 893 894 
861 861 894 895 862 862 895 896 863 
863 896 897 864 864 897 898 865 865 
898 899 866 866 899 900 867 867 900 
901 868 868 901 902 869 869 902 903 
870 870 903 904 871 871 904 905 872 
872 905 906 873 873 906 907 874 874 
907 908 875 875 908 909 876 876 909 
910 877 877 910 911 878 878 911 912 
879 879 912 913 880 880 913 914 881 
881 914 915 882 882 915 916 883 883 
916 917 884 884 917 918 885 885 918 
919 886 886 919 920 887 887 920 921 
888 888 921 922 889 889 922 923 890 
891 924 925 892 892 925 926 893 893 
926 927 894 894 927 928 895 895 928 
929 896 896 929 930 897 897 930 931 
898 898 931 932 899 899 932 933 900 
900 933 934 901 901 934 935 902 902 
935 936 903 903 936 937 904 904 937 
938 905 905 938 939 906 906 939 940 
907 907 940 941 908 908 941 942 909 
909 942 943 910 910 943 944 911 911 
944 945 912 912 945 946 913 913 946 
947 914 914 947 948 915 915 948 949 
916 916 949 950 917 917 950 951 918 
918 951 952 919 919 952 953 920 920 
953 954 921 921 954 955 922 922 955 
956 923 924 957 958 925 925 958 959 
926 926 959 960 927 927 960 961 928 
928 961 962 929 929 962 963 930 930 
963 964 931 931 964 965 932 932 965 
966 933 933 966 967 934 934 967 968 
935 935 968 969 936 936 969 970 937 
937 970 971 938 938 971 972 939 939 
972 973 940 940 973 974 941 941 974 
975 942 942 975 976 943 943 976 977 
944 944 977 978 945 945 978 979 946 
946 979 980 947 947 980 981 948 948 
981 982 949 949 982 983 950 950 983 
984 951 951 984 985 952 952 985 986 
953 953 986 987 954 954 987 988 955 
955 988 989 956 957 990 991 958 958 
991 992 959 959 992 993 960 960 993 
994 961 961 994 995 962 962 995 996 
963 963 996 997 964 964 997 998 965 
965 998 999 966 966 999 1000 967 967 
1000 1001 968 968 1001 1002 969 969 1002 
1003 970 970 1003 1004 971 971 1004 1005 
972 972 1005 1006 973 973 1006 1007 974 
974 1007 1008 975 975 1008 1009 976 976 
1009 1010 977 977 1010 1011 978 978 1011 
1012 979 979 1012 1013 980 980 1013 1014 
981 981 1014 1015 982 982 1015 1016 983 
983 1016 1017 984 984 1017 1018 985 985 
1018 1019 986 986 1019 1020 987 987 1020 
1021 988 988 1021 1022 989 990 1023 1024 
991 991 1024 1025 992 992 1025 1026 993 
993 1026 1027 994 994 1027 1028 995 995 
1028 1029 996 996 1029 1030 997 997 1030 
1031 998 998 1031 1032 999 999 1032 1033 
1000 1000 1033 1034 1001 1001 1034 1035 1002 
1002 1035 1036 1003 1003 1036 1037 1004 1004 
1037 1038 1005 1005 1038 1039 1006 1006 1039 
1040 1007 1007 1040 1041 1008 1008 1041 1042 
1009 1009 1042 1043 1010 1010 1043 1044 1011 
1011 1044 1045 1012 1012 1045 1046 1013 1013 
1046 1047 1014 1014 1047 1048 1015 1015 1048 
1049 1016 1016 1049 1050 1017 1017 1050 1051 
1018 1018 1051 1052 1019 1019 1052 1053 1020 
1020 1053 1054 1021 1021 1054 1055 1022 1023 
1056 1057 1024 1024 1057 1058 1025 1025 1058 
1059 1026 1026 1059 1060 1027 1027 1060 1061 
1028 1028 1061 1062 1029 1029 1062 1063 1030 
1030 1063 1064 1031 1031 1064 1065 1032 1032 
1065 1066 1033 1033 1066 1067 1034 1034 1067 
1068 1035 1035 1068 1069 1036 1036 1069 1070 
1037 1037 1070 1071 1038 1038 1071 1072 1039 
1039 1072 1073 1040 1040 1073 1074 1041 1041 
1074 1075 1042 1042 1075 1076 1043 1043 1076 
1077 1044 1044 1077 1078 1045 1045 1078 1079 
1046 1046 1079 1080 1047 1047 1080 1081 1048 
1048 1081 1082 1049 1049 1082 1083 1050 1050 
1083 1084 1051 1051 1084 1085 1052 1052 1085 
1086 1053 1053 1086 1087 1054 1054 1087 1088 
1055 
CELL_TYPES 1024
9
9
9
9
9
9
9
9
9
9
9
9
9
9
9
9
9
9
9
9
9
9
9
9
9
9
9
9
9
9
9
9
9
9
9
9
9
9
9
9
9
9
9
9
9
9
9
9
9
9
9
9
9
9
9
9
9
9
9
9
9
9
9
9
9
9
9
9
9
9
9
9
9
9
9
9
9
9
9
9
9
9
9
9
9
9
9
9
9
9
9
9
9
9
9
9
9
9
9
9
9
9
9
9
9
9
9
9
9
9
9
9
9
9
9
9
9
9
9
9
9
9
9
9
9
9
9
9
9
9
9
9
9
9
9
9
9
9
9
9
9
9
9
9
9
9
9
9
9
9
9
9
9
9
9
9
9
9
9
9
9
9
9
9
9
9
9
9
9
9
9
9
9
9
9
9
9
9
9
9
9
9
9
9
9
9
9
9
9
9
9
9
9
9
9
9
9
9
9
9
9
9
9
9
9
9
9
9
9
9
9
9
9
9
9
9
9
9
9
9
9
9
9
9
9
9
9
9
9
9
9
9
9
9
9
9
9
9
9
9
9
9
9
9
9
9
9
9
9
9
9
9
9
9
9
9
9
9
9
9
9
9
9
9
9
9
9
9
9
9
9
9
9
9
9
9
9
9
9
9
9
9
9
9
9
9
9
9
9
9
9
9
9
9
9
9
9
9
9
9
9
9
9
9
9
9
9
9
9
9
9
9
9
9
9
9
9
9
9
9
9
9
9
9
9
9
9
9
9
9
9
9
9
9
9
9
9
9
9
9
9
9
9
9
9
9
9
9
9
9
9
9
9
9
9
9
9
9
9
9
9
9
9
9
9
9
9
9
9
9
9
9
9
9
9
9
9
9
9
9
9
9
9
9
9
9
9
9
9
9
9
9
9
9
9
9
9
9
9
9
9
9
9
9
9
9
9
9
9
9
9
9
9
9
9
9
9
9
9
9
9
9
9
9
9
9
9
9
9
9
9
9
9
9
9
9
9
9
9
9
9
9
9
9
9
9
9
9
9
9
9
9
9
9
9
9
9
9
9
9
9
9
9
9
9
9
9
9
9
9
9
9
9
9
9
9
9
9
9
9
9
9
9
9
9
9
9
9
9
9
9
9
9
9
9
9
9
9
9
9
9
9
9
9
9
9
9
9
9
9
9
9
9
9
9
9
9
9
9
9
9
9
9
9
9
9
9
9
9
9
9
9
9
9
9
9
9
9
9
9
9
9
9
9
9
9
9
9
9
9
9
9
9
9
9
9
9
9
9
9
9
9
9
9
9
9
9
9
9
9
9
9
9
9
9
9
9
9
9
9
9
9
9
9
9
9
9
9
9
9
9
9
9
9
9
9
9
9
9
9
9
9
9
9
9
9
9
9
9
9
9
9
9
9
9
9
9
9
9
9
9
9
9
9
9
9
9
9
9
9
9
9
9
9
9
9
9
9
9
9
9
9
9
9
9
9
9
9
9
9
9
9
9
9
9
9
9
9
9
9
9
9
9
9
9
9
9
9
9
9
9
9
9
9
9
9
9
9
9
9
9
9
9
9
9
9
9
9
9
9
9
9
9
9
9
9
9
9
9
9
9
9
9
9
9
9
9
9
9
9
9
9
9
9
9
9
9
9
9
9
9
9
9
9
9
9
9
9
9
9
9
9
9
9
9
9
9
9
9
9
9
9
9
9
9
9
9
9
9
9
9
9
9
9
9
9
9
9
9
9
9
9
9
9
9
9
9
9
9
9
9
9
9
9
9
9
9
9
9
9
9
9
9
9
9
9
9
9
9
9
9
9
9
9
9
9
9
9
9
9
9
9
9
9
9
9
9
9
9
9
9
9
9
9
9
9
9
9
9
9
9
9
9
9
9
9
9
9
9
9
9
9
9
9
9
9
9
9
9
9
9
9
9
9
9
9
9
9
9
9
9
9
9
9
9
9
9
9
9
9
9
9
9
9
9
9
9
9
9
9
9
9
9
9
9
9
9
9
9
9
9
9
9
9
9
9
9
9
9
9
9
9
9
9
9
9
9
9
9
9
9
9
9
9
9
9
9
9
9
9
9
9
9
9
9
9
9
9
9
9
9
9
9
9
9
9
9
9
9
9
9
9
9
9
9
9
9
9
9
9
9
9
9
9
9
9
9
9
9
9
9
9
9
9
9
9
9
9
9
9
9
9
9
9
9
9
9
9
9
9
9
9
9
9
9
9
9
9
9
9
9
9
9
9
9
9
9
9
9
9
9
9
9
9
9
9
9
9
9
9
9
9
9
9
9
9
9
9
9
9
9
9
9
9
9
9
9
9
9
9
9
9
9
9

POINT_DATA 1089
FIELD FieldData 11
P1 1 1089 double
2487827.2301 -3272063.0375 -4278002.0414 -3548789.5746 -4103225.4299 -5467253.6609 -7166818.3209 -6149411.1904 637475.95018 
10176014.687 19448376.606 27533973.704 33512217.974 37896175.524 41198912.459 43567714.25 45149866.368 46059796.374 
46411931.832 46251881.814 45625255.393 44530322.667 42965353.732 40897582.074 38294241.179 35087358.891 31208963.059 
26699567.682 21599686.763 15736126.25 8935692.091 3224763.0075 629717.72103 2532742.2959 -3331136.6481 -4355236.8089 
-3612859.1894 -4177304.7926 -5565959.098 -7296207.5849 -6260432.2533 648984.89659 10359731.777 19799496.301 28031070.229 
34117245.323 38580350.55 41942714.878 44354282.859 45964999.046 46891356.868 47249849.756 47086910.206 46448970.713 
45334270.144 43741047.365 41635944.295 38985602.857 35720823.73 31772407.598 27181599.898 21989646.069 16020225.225 
9097016.4808 3282982.6642 641086.60298 2576253.0554 -3388363.2678 -4430056.7595 -3674925.606 -4249067.9938 -5661578.4188 
-7421551.3767 -6367982.1424 660134.00925 10537704.797 20139637.939 28512624.608 34703355.976 39243134.261 42663261.68 
45116258.729 46754645.904 47696917.912 48061569.46 47895830.721 47246931.87 46113081.517 44492488.273 42351220.991 
39655348.521 36334482.75 32318235.562 27648560.964 22367412.963 16295441.602 9253296.9254 3339382.0334 652100.02686 
2618128.7892 -3443439.4559 -4502065.1659 -3734659.7248 -4318134.5164 -5753604.6077 -7542185.0655 -6471490.5785 670864.16465 
10708990.036 20466997.906 28976083.379 35267442.059 39881012.22 43356732.138 45849601.455 47514619.812 48472207.991 
48842786.771 48674354.03 48014907.645 46862627.109 45215691.915 43039619.38 40299926.821 36925082 32843552.679 
28097974.804 22730984.324 16560316.038 9403704.7425 3393662.0556 662699.59395 2658134.9782 -3496056.7653 -4570858.7543 
-3791727.012 -4384117.5618 -5841522.2837 -7657433.0579 -6570377.8759 681115.27084 10872628.235 20779742.868 29418851.007 
35806344.486 40490412.081 44019242.567 46550204.052 48240664.641 49212885.199 49589126.591 49418120.122 48748597.098 
47578709.196 45906608.089 43697284.183 40915727.886 37489313.914 33345416.983 28527324.537 23078324.021 16813365.139 
9547397.594 3445518.7431 672825.94281 2696035.8914 -3545905.1536 -4636032.1646 -3845791.203 -4446628.3301 -5924813.4 
-7766616.2667 -6664061.351 690826.92628 11027655.178 21076030.017 29838318.54 36316887.844 41067743.032 44646889.21 
47213938.309 48928502.265 49914585.192 50296191.206 50122746.448 49443677.057 48257108.354 46561165.658 44320340.195 
41499123.186 38023853.825 33820871.302 28934080.274 23407385.398 17053097.846 9683528.7877 3494646.5367 682419.40511 
2731597.4512 -3592676.7555 -4697182.8838 -3896518.3957 -4505280.7531 -6002963.5481 -7869060.3729 -6751962.4117 699939.15081 
11173113.412 21354029.47 30231895.329 36795918.996 41609439.456 45235795.695 47836704.978 49573884.571 50572974.241 
50959613.758 50783881.209 50095854.68 48893634.763 47175322.051 44904939.396 42046509.65 38525400.394 34266979.212 
29315729.876 23716136.16 17278033.56 9811257.5724 3540742.0216 691420.73127 2764590.331 -3636069.9545 -4753916.5688 
-3943581.4658 -4559696.5988 -6075468.7607 -7964104.744 -6833514.2097 708393.1813 11308064.917 21611948.485 30597043.307 
37240348.803 42112008.101 45782164.328 48414488.009 50172649.667 51183806.578 51575116.019 51397260.931 50700924.254 
49484183.641 47745116.742 45447311.869 42554357.332 38990719.287 34680863.887 29669812.191 24002585.259 17486721.733 
9929760.2606 3583507.9407 699771.87429 2794793.2228 -3675793.68 -4805852.6646 -3986664.726 -4609510.8596 -6141842.6911 
-8051111.8466 -6908169.716 716132.31056 11431604.472 21848057.008 30931313.154 37647196.144 42572077.866 46282330.208 
48943411.779 50720781.19 51742984.896 52138569.356 51958771.218 51254827.128 50024793.737 48266727.694 45943819.517 
43019259.721 39416689.262 35059749.094 29993952.125 24264811.266 17677762.539 10038241.966 3622657.4312 707416.81683 
2821996.2042 -3711571.8358 -4852630.1935 -4025468.7298 -4654377.3053 -6201624.0128 -8129476.945 -6975410.0438 723102.74893 
11542873.428 22060713.989 31232381.559 38013633.263 42986451.078 46732816.977 49419800.054 51214469.401 52246622.677 
52646057.539 52464509.344 51753713.449 50511707.589 48736529.497 46391011.408 43437985.555 39800349.655 35401001.425 
30285896.773 24500991.605 17849828.165 10135948.697 3657918.3879 714302.42339 2846004.119 -3743147.7466 -4893913.5702 
-4059715.0941 -4693974.0608 -6254383.8502 -8198637.8423 -7034752.806 729254.48983 11641073.533 22248393.81 31498088.633 
38337031.313 43352154.991 47130392.808 49840235.186 51650172.545 52691106.784 53093939.808 52910847.106 52194004.17 
50941432.041 49151151.758 46785679.355 43807530.863 40138948.056 35702172.711 30543551.701 24709431.899 18001684.2 
10222179.498 3689037.846 720379.2961 2866639.8798 -3770288.502 -4929398.2799 -4089151.211 -4728009.0523 -6299733.0359 
-8258084.3936 -7085760.2785 734542.15657 11725480.441 22409712.106 31726474.467 38615004.843 43666492.099 47472125.102 
50201615.962 52024676.785 53073158.614 53478912.492 53294492.225 52572451.616 51310797.356 49507536.139 47124912.207 
44125169.803 40429986.895 35961041.451 30765016.394 24888594.65 18132210.522 10296298.313 3715786.2623 725602.6107 
2883747.5958 -3792789.0698 -4958816.2568 -4113554.7079 -4756225.1658 -6337328.9838 -8307367.5155 -7128047.1298 738925.80398 
11795456.51 22543450.213 31915813.742 38845453.927 43927087.771 47755432.273 50501212.362 52335152.964 53389891.989 
53798067.352 53612546.489 52886196.84 51617013.2 49802990.366 47406147.258 44388502.801 40671267.545 36175652.044 
30948617.818 25037126.39 18240421.083 10357745.218 3737961.5682 729932.90816 2897195.426 -3810476.0488 -4981940.7906 
-4132737.5189 -4778404.9531 -6366881.96 -8346107.4065 -7161287.4756 742371.64948 11850462.467 22648577.475 32064647.309 
39026602.606 44131933.721 47978131.009 50736715.541 52579208.39 53638865.998 54048944.812 53862558.806 53132821.958 
51857719.713 50035237.514 47627217.167 44595500.475 40860930.572 36344350.589 31092941.044 25153882.456 18325481.955 
10406046.67 3755392.8692 733336.81695 2906878.0652 -3823210.9387 -4998590.8015 -4146549.4303 -4794374.7323 -6388160.5456 
-8374000.7084 -7185221.0226 744852.70989 11890067.58 22724270.679 32171809.708 39157032.369 44279425.874 48138477.435 
50906281.359 52754931.953 53818131.015 54229580.342 54042571.421 53310395.739 52031032.008 50202458.94 47786390.813 
44744541.903 40997490.793 36465816.069 31196855.929 25237948.572 18386727.057 10440824.44 3767943.6671 735787.68228 
2912718.7768 -3830892.8132 -5008634.335 -4154880.9801 -4804007.9399 -6400996.1041 -8390826.3619 -7199658.0932 746349.32234 
11913957.972 22769929.942 32236451.657 39235709.537 44368395.329 48235200.778 51008565.976 52860931.014 53926266.333 
54338542.374 54151157.701 53417510.878 52135576.556 50303329.386 47882406.718 44834445.903 41079865.945 36539085.849 
31259538.929 25288658.501 18423671.011 10461802.907 3775514.4946 737266.0806 2914670.9 -3833460.3027 -5011991.1545 
-4157665.6085 -4807227.6175 -6405286.0935 -8396449.9486 -7204483.3512 746849.53054 11921942.784 22785190.498 32258056.737 
39262005.566 44398131.318 48267528.325 51042752.25 52896358.755 53962408.069 54374960.42 54187450.161 53453311.643 
52170518.161 50337043.006 47914497.82 44864494.242 41107397.94 36563574.583 31280489.277 25305607.125 18436018.676 
10468814.476 3778044.8691 737760.20115 2912718.7768 -3830892.8132 -5008634.335 -4154880.9801 -4804007.9399 -6400996.1041 
-8390826.3619 -7199658.0932 746349.32234 11913957.972 22769929.942 32236451.657 39235709.537 44368395.329 48235200.778 
51008565.976 52860931.014 53926266.333 54338542.374 54151157.701 53417510.878 52135576.556 50303329.386 47882406.718 
44834445.903 41079865.945 36539085.849 31259538.929 25288658.501 18423671.011 10461802.907 3775514.4946 737266.0806 
2906878.0652 -3823210.9387 -4998590.8015 -4146549.4303 -4794374.7323 -6388160.5456 -8374000.7084 -7185221.0226 744852.70989 
11890067.58 22724270.679 32171809.708 39157032.369 44279425.874 48138477.435 50906281.359 52754931.953 53818131.015 
54229580.342 54042571.421 53310395.739 52031032.008 50202458.94 47786390.813 44744541.903 40997490.793 36465816.069 
31196855.929 25237948.572 18386727.057 10440824.44 3767943.6671 735787.68228 2897195.426 -3810476.0488 -4981940.7906 
-4132737.5189 -4778404.9531 -6366881.96 -8346107.4065 -7161287.4756 742371.64948 11850462.467 22648577.475 32064647.309 
39026602.606 44131933.721 47978131.009 50736715.541 52579208.39 53638865.998 54048944.812 53862558.806 53132821.958 
51857719.713 50035237.514 47627217.167 44595500.475 40860930.572 36344350.589 31092941.044 25153882.456 18325481.955 
10406046.67 3755392.8692 733336.81695 2883747.5958 -3792789.0698 -4958816.2568 -4113554.7079 -4756225.1658 -6337328.9838 
-8307367.5155 -7128047.1298 738925.80398 11795456.51 22543450.213 31915813.742 38845453.927 43927087.771 47755432.273 
50501212.362 52335152.964 53389891.989 53798067.352 53612546.489 52886196.84 51617013.2 49802990.366 47406147.258 
44388502.801 40671267.545 36175652.044 30948617.818 25037126.39 18240421.083 10357745.218 3737961.5682 729932.90816 
2866639.8798 -3770288.502 -4929398.2799 -4089151.211 -4728009.0523 -6299733.0359 -8258084.3936 -7085760.2785 734542.15657 
11725480.441 22409712.106 31726474.467 38615004.843 43666492.099 47472125.102 50201615.962 52024676.785 53073158.614 
53478912.492 53294492.225 52572451.616 51310797.356 49507536.139 47124912.207 44125169.803 40429986.895 35961041.451 
30765016.394 24888594.65 18132210.522 10296298.313 3715786.2623 725602.6107 2846004.119 -3743147.7466 -4893913.5702 
-4059715.0941 -4693974.0608 -6254383.8502 -8198637.8423 -7034752.806 729254.48984 11641073.533 22248393.81 31498088.633 
38337031.313 43352154.991 47130392.808 49840235.186 51650172.545 52691106.784 53093939.808 52910847.106 52194004.17 
50941432.041 49151151.758 46785679.355 43807530.863 40138948.056 35702172.711 30543551.701 24709431.899 18001684.2 
10222179.498 3689037.846 720379.2961 2821996.2042 -3711571.8358 -4852630.1935 -4025468.7298 -4654377.3053 -6201624.0128 
-8129476.945 -6975410.0438 723102.74893 11542873.428 22060713.989 31232381.559 38013633.263 42986451.078 46732816.977 
49419800.054 51214469.401 52246622.677 52646057.539 52464509.344 51753713.449 50511707.589 48736529.497 46391011.408 
43437985.555 39800349.655 35401001.425 30285896.773 24500991.605 17849828.165 10135948.697 3657918.3879 714302.42339 
2794793.2228 -3675793.68 -4805852.6646 -3986664.726 -4609510.8596 -6141842.6911 -8051111.8466 -6908169.716 716132.31055 
11431604.472 21848057.008 30931313.154 37647196.144 42572077.866 46282330.208 48943411.779 50720781.19 51742984.896 
52138569.356 51958771.218 51254827.128 50024793.737 48266727.694 45943819.517 43019259.721 39416689.262 35059749.094 
29993952.125 24264811.266 17677762.539 10038241.966 3622657.4312 707416.81683 2764590.331 -3636069.9545 -4753916.5688 
-3943581.4658 -4559696.5988 -6075468.7607 -7964104.744 -6833514.2097 708393.1813 11308064.917 21611948.485 30597043.307 
37240348.803 42112008.101 45782164.328 48414488.009 50172649.667 51183806.578 51575116.019 51397260.931 50700924.254 
49484183.641 47745116.742 45447311.869 42554357.332 38990719.287 34680863.887 29669812.191 24002585.259 17486721.733 
9929760.2606 3583507.9407 699771.87429 2731597.4512 -3592676.7555 -4697182.8838 -3896518.3957 -4505280.7531 -6002963.5481 
-7869060.3729 -6751962.4117 699939.15081 11173113.412 21354029.47 30231895.329 36795918.996 41609439.456 45235795.695 
47836704.978 49573884.571 50572974.241 50959613.758 50783881.209 50095854.68 48893634.763 47175322.051 44904939.396 
42046509.65 38525400.394 34266979.212 29315729.876 23716136.16 17278033.56 9811257.5724 3540742.0216 691420.73127 
2696035.8914 -3545905.1536 -4636032.1646 -3845791.203 -4446628.3301 -5924813.4 -7766616.2667 -6664061.351 690826.92628 
11027655.178 21076030.017 29838318.54 36316887.844 41067743.032 44646889.21 47213938.309 48928502.265 49914585.192 
50296191.206 50122746.448 49443677.057 48257108.354 46561165.658 44320340.195 41499123.186 38023853.825 33820871.302 
28934080.274 23407385.398 17053097.846 9683528.7877 3494646.5367 682419.40511 2658134.9782 -3496056.7653 -4570858.7543 
-3791727.012 -4384117.5618 -5841522.2837 -7657433.0579 -6570377.8759 681115.27084 10872628.235 20779742.868 29418851.007 
35806344.486 40490412.081 44019242.567 46550204.052 48240664.641 49212885.199 49589126.591 49418120.122 48748597.098 
47578709.196 45906608.089 43697284.183 40915727.886 37489313.914 33345416.983 28527324.537 23078324.021 16813365.139 
9547397.594 3445518.7431 672825.94281 2618128.7892 -3443439.4559 -4502065.1659 -3734659.7248 -4318134.5164 -5753604.6077 
-7542185.0655 -6471490.5785 670864.16464 10708990.036 20466997.906 28976083.379 35267442.059 39881012.22 43356732.138 
45849601.455 47514619.812 48472207.991 48842786.771 48674354.03 48014907.645 46862627.109 45215691.915 43039619.38 
40299926.821 36925082 32843552.679 28097974.804 22730984.324 16560316.038 9403704.7425 3393662.0556 662699.59395 
2576253.0554 -3388363.2678 -4430056.7595 -3674925.606 -4249067.9938 -5661578.4188 -7421551.3767 -6367982.1424 660134.00925 
10537704.797 20139637.939 28512624.608 34703355.976 39243134.261 42663261.68 45116258.729 46754645.904 47696917.912 
48061569.46 47895830.721 47246931.87 46113081.517 44492488.273 42351220.991 39655348.521 36334482.75 32318235.562 
27648560.965 22367412.963 16295441.602 9253296.9254 3339382.0334 652100.02686 2532742.2959 -3331136.6481 -4355236.8089 
-3612859.1894 -4177304.7926 -5565959.098 -7296207.5849 -6260432.2533 648984.89659 10359731.777 19799496.301 28031070.229 
34117245.323 38580350.55 41942714.878 44354282.859 45964999.046 46891356.868 47249849.756 47086910.206 46448970.713 
45334270.144 43741047.365 41635944.295 38985602.857 35720823.73 31772407.598 27181599.898 21989646.069 16020225.225 
9097016.4808 3282982.6642 641086.60298 2487827.2301 -3272063.0375 -4278002.0414 -3548789.5746 -4103225.4299 -5467253.6609 
-7166818.3209 -6149411.1904 637475.95017 10176014.687 19448376.606 27533973.704 33512217.974 37896175.524 41198912.459 
43567714.25 45149866.368 46059796.374 46411931.832 46251881.814 45625255.393 44530322.667 42965353.732 40897582.074 
38294241.179 35087358.891 31208963.059 26699567.682 21599686.763 15736126.25 8935692.091 3224763.0075 629717.72102 

P2 1 1089 double
-211844193.71 -182560218.64 -148660193.68 -114555518.86 -84657594.192 -58281333.428 -34741650.305 -17243041.733 -8990004.6195 
-6389310.6533 -5847731.5212 -6115328.1275 -5942161.3763 -5557942.5021 -5192382.7395 -4820644.8078 -4417891.4262 -3997402.5974 
-3572458.3241 -3146843.6197 -2724343.4978 -2311068.085 -1913127.5082 -1530254.4552 -1162181.6142 -829734.17968 -553737.34627 
-313772.34154 -89420.393086 72097.350628 123559.74112 -321994.04863 -1651524.8457 -215668814.67 -185856148.66 -151344094.91 
-116623696.56 -86185996.756 -59333540.738 -35368873.745 -17554346.459 -9152309.5654 -6504662.8445 -5953306.0788 -6225733.856 
-6049440.7635 -5658285.2272 -5286125.6729 -4907676.4092 -4497651.7447 -4069571.4385 -3636955.2494 -3203656.5254 -2773528.6143 
-2352791.9546 -1947666.9849 -1557881.5672 -1183163.5634 -844714.1449 -563734.48288 -319437.16581 -91034.782125 73398.99217 
125790.48108 -327807.30728 -1681341.3648 -219373855.58 -189049028.61 -153944081.67 -118627210.92 -87666612.507 -60352849.886 
-35976486.507 -17855917.977 -9309539.9056 -6616408.4466 -6055579.7535 -6332687.6516 -6153365.9661 -5755490.6487 -5376937.6511 
-4991986.8912 -4574918.2871 -4139483.8577 -3699435.6222 -3258693.1261 -2821175.9154 -2393211.2914 -1981126.5553 -1584644.8941 
-1203489.4945 -859225.74938 -573419.05136 -324924.87556 -92598.697064 74659.93564 127951.47408 -333438.81009 -1710225.6452 
-222939670.34 -192121928.13 -156446367.44 -120555438.23 -89091590.428 -61333855.951 -36561266.704 -18146157.193 -9460861.9248 
-6723954.9307 -6154010.2414 -6435622.3929 -6253385.9211 -5849043.3349 -5464337.1434 -5073129.1971 -4649281.3468 -4206769.1437 
-3759568.1392 -3311661.5894 -2867032.7504 -2432111.7706 -2013328.7987 -1610402.5219 -1223051.6277 -873192.04373 -582739.6976 
-330206.37049 -94103.843583 75873.496401 130031.26273 -338858.6949 -1738024.5267 -226346289.09 -195057637.88 -158836938.53 
-122397579.72 -90452950.128 -62271064.945 -37119939.356 -18423438.663 -9605428.1647 -6826699.997 -6248046.2956 -6533961.6076 
-6348940.4801 -5938419.3567 -5547834.6809 -5150648.9006 -4720324.4638 -4271050.4744 -3817016.0367 -3362265.2727 -2910842.3044 
-2469275.5358 -2044093.371 -1635010.1989 -1241740.4082 -886534.81191 -591644.22286 -335252.07256 -95541.792511 77032.877904 
132018.19931 -344036.6085 -1764582.3257 -229573638.77 -197838859.55 -161101708.78 -124142780.81 -91742669.967 -63158954.48 
-37649212.554 -18686128.54 -9742386.785 -6924038.231 -6337133.8185 -6627125.8428 -6439466.5988 -6023092.0761 -5626938.264 
-5224089.2258 -4787629.0249 -4331949.08 -3871440.8101 -3410206.0002 -2952346.4352 -2504483.6041 -2073238.9961 -1658322.9276 
-1259445.7151 -899175.43375 -600080.15881 -340032.25109 -96904.071431 78131.248153 133900.57563 -348942.04099 -1789742.5537 
-232601787.14 -200448416.22 -163226690.9 -125780263.06 -92952784.586 -63992040.917 -38145817.487 -18932604.441 -9870891.9248 
-7015368.4685 -6420722.6027 -6714539.7128 -6524405.1846 -6102538.5512 -5701159.3461 -5292996.6027 -4850779.3547 -4389088.8483 
-3922506.3298 -3455187.688 -2991288.8115 -2537518.5292 -2100585.6695 -1680196.7278 -1276058.1996 -911035.84015 -607995.40463 
-344517.38338 -98182.266695 79161.823718 135666.76616 -353544.69613 -1813349.8199 -235411206.5 -202869479.57 -165198181.45 
-127299466.81 -94075490.29 -64764951.914 -38606551.688 -19161276.913 -9990114.8908 -7100101.7471 -6498273.6079 -6795639.5106 
-6603208.4926 -6176246.4544 -5770019.2963 -5356926.6668 -4909368.2143 -4442101.3009 -3969883.2885 -3496920.2616 -3027418.3049 
-2568167.2778 -2125957.0397 -1700490.541 -1291470.7322 -922039.54637 -615338.91685 -348678.54577 -99368.135315 80117.958941 
137305.38142 -357814.89255 -1835251.8876 -237983052 -205085809.74 -167002956.19 -128690201.62 -95103256.257 -65472502.98 
-39028324.668 -19370612.078 -10099255.965 -7177669.6974 -6569266.6418 -6869881.2393 -6675347.9303 -6243721.3715 -5833056.2196 
-5415450.5916 -4963002.6047 -4490630.8438 -4013253.8935 -3535123.7896 -3060492.5678 -2596224.266 -2149182.9223 -1719068.2417 
-1305579.9295 -932112.74245 -622061.43712 -352487.82633 -100453.72287 80993.240238 138805.42995 -361723.98688 -1855301.8434 
-240299448.25 -207082002.31 -168628471.2 -129942801.32 -96028939.091 -66109776.345 -39408204.934 -19559154.972 -10197556.573 
-7247533.19 -6633208.2734 -6936748.8881 -6740322.0988 -6304494.3243 -5889831.9834 -5468161.6117 -5011309.7448 -4534340.1767 
-4052316.7015 -3569532.7419 -3090281.7206 -2621494.4863 -2170101.8878 -1735800.7073 -1318287.7271 -941185.41566 -628116.24131 
-355918.74913 -101431.48421 81781.583928 140156.48573 -365244.80938 -1873360.332 -242343777.25 -208843736.45 -170063064.89 
-131048279.67 -96845897.875 -66672200.162 -39743467.194 -19725552.972 -10284311.498 -7309191.0188 -6689639.7804 -6995762.7435 
-6797664.8685 -6358129.3228 -5939939.2741 -5514681.5743 -5053943.0754 -4572915.7256 -4086791.4729 -3599900.2661 -3116572.0537 
-2643796.6482 -2188563.862 -1750567.8978 -1329502.9582 -949192.47793 -633459.89175 -358946.70043 -102294.40476 82477.334408 
141348.8562 -368352.10141 -1889297.8004 -244100959.61 -210358017.25 -171296155.43 -131998482.43 -97548106.553 -67155625.878 
-40031638.486 -19868578.694 -10358880.818 -7362188.3834 -6738144.9129 -7046487.5074 -6846953.2675 -6404230.7446 -5983008.4902 
-5554667.3387 -5090588.1246 -4606072.9493 -4116423.9148 -3626002.365 -3139169.6442 -2662966.2464 -2204432.6657 -1763260.8873 
-1339142.8968 -956074.86748 -638052.97255 -361549.34539 -103036.11938 83075.35974 142373.74621 -371022.9429 -1902996.6905 
-245557720.86 -211613405.22 -172318427.53 -132786231.38 -98130260.355 -67556401.498 -40270541.847 -19987151.663 -10420701.207 
-7406124.9201 -6778357.2432 -7088539.9843 -6887814.9512 -6442450.3207 -6018714.2693 -5587816.8362 -5120968.0605 -4633561.3648 
-4140990.1715 -3647641.8528 -3157903.7807 -2678858.4659 -2217588.4193 -1773783.7879 -1347134.7191 -961780.59194 -641860.78569 
-363707.02259 -103651.02488 83571.142177 143223.41332 -373237.15724 -1914353.5153 -246702834.44 -212600225.69 -173122003.04 
-133405455.71 -98587872.899 -67871438.437 -40458336.163 -20080358.094 -10469296.244 -7440662.0308 -6809966.874 -7121596.0957 
-6919935.0181 -6472493.5109 -6046781.4439 -5613874.5993 -5144848.7596 -4655169.1318 -4160300.9228 -3664651.9643 -3172630.0882 
-2691350.8331 -2227929.7378 -1782055.5046 -1353416.8358 -966265.68005 -644853.98622 -365403.10385 -104134.3825 83960.860931 
143891.30954 -374977.68054 -1923280.7532 -247527333.37 -213310751.2 -173700589.45 -133851306.51 -98917360.787 -68098269.752 
-40593550.884 -20147468.121 -10504285.398 -7465529.268 -6832726.2818 -7145396.9912 -6943061.9475 -6494125.058 -6066990.2301 
-5632636.5792 -5162043.2208 -4670727.0478 -4174204.953 -3676899.4994 -3183233.2502 -2700345.5246 -2235375.6421 -1788011.2646 
-1357940.0539 -969495.01069 -647009.13545 -366624.30778 -104482.40724 84241.464266 144372.20483 -376230.8834 -1929708.4983 
-248024683.36 -213739350.74 -174049601.36 -134120250.33 -99116112.77 -68235097.767 -40675114.41 -20187949.885 -10525391.375 
-7480529.5544 -6846455.0943 -7159754.0444 -6957012.4544 -6507173.5282 -6079180.4698 -5643954.0838 -5172415.1749 -4680111.8136 
-4182592.0703 -3684287.3943 -3189629.2348 -2705771.2559 -2239867.122 -1791603.8673 -1360668.5262 -971442.99084 -648309.15344 
-367360.9561 -104692.34092 84410.728367 144662.288 -376986.83396 -1933585.8095 -248190911.13 -213882600.25 -174166250.54 
-134210138.6 -99182541.037 -68280829.376 -40702375.138 -20201479.981 -10532445.561 -7485543.0543 -6851043.6333 -7164552.5584 
-6961675.0897 -6511534.6785 -6083254.7763 -5647736.6987 -5175881.7614 -4683248.4552 -4185395.2709 -3686756.6279 -3191766.9452 
-2707584.6815 -2241368.2956 -1792804.612 -1361580.4552 -972094.05829 -648743.65448 -367607.16382 -104762.5064 84467.300994 
144759.24161 -377239.49301 -1934881.7113 -248024683.36 -213739350.74 -174049601.36 -134120250.33 -99116112.77 -68235097.767 
-40675114.41 -20187949.885 -10525391.375 -7480529.5544 -6846455.0943 -7159754.0444 -6957012.4544 -6507173.5282 -6079180.4698 
-5643954.0838 -5172415.1749 -4680111.8136 -4182592.0703 -3684287.3943 -3189629.2348 -2705771.2559 -2239867.122 -1791603.8673 
-1360668.5262 -971442.99084 -648309.15344 -367360.9561 -104692.34091 84410.72837 144662.288 -376986.83396 -1933585.8095 
-247527333.37 -213310751.2 -173700589.45 -133851306.51 -98917360.787 -68098269.752 -40593550.884 -20147468.121 -10504285.398 
-7465529.268 -6832726.2818 -7145396.9912 -6943061.9475 -6494125.058 -6066990.2301 -5632636.5792 -5162043.2208 -4670727.0478 
-4174204.953 -3676899.4994 -3183233.2502 -2700345.5246 -2235375.6421 -1788011.2646 -1357940.0539 -969495.01069 -647009.13545 
-366624.30778 -104482.40724 84241.464268 144372.20483 -376230.8834 -1929708.4983 -246702834.44 -212600225.69 -173122003.04 
-133405455.71 -98587872.899 -67871438.437 -40458336.163 -20080358.094 -10469296.244 -7440662.0308 -6809966.874 -7121596.0957 
-6919935.0181 -6472493.5109 -6046781.4439 -5613874.5993 -5144848.7596 -4655169.1318 -4160300.9228 -3664651.9643 -3172630.0882 
-2691350.8331 -2227929.7378 -1782055.5046 -1353416.8358 -966265.68005 -644853.98622 -365403.10385 -104134.3825 83960.860929 
143891.30954 -374977.68055 -1923280.7532 -245557720.86 -211613405.22 -172318427.53 -132786231.38 -98130260.355 -67556401.498 
-40270541.847 -19987151.663 -10420701.207 -7406124.9201 -6778357.2432 -7088539.9843 -6887814.9512 -6442450.3207 -6018714.2693 
-5587816.8362 -5120968.0605 -4633561.3648 -4140990.1715 -3647641.8528 -3157903.7807 -2678858.4659 -2217588.4193 -1773783.7879 
-1347134.7191 -961780.59194 -641860.78569 -363707.02259 -103651.02488 83571.142172 143223.41331 -373237.15724 -1914353.5153 
-244100959.61 -210358017.25 -171296155.43 -131998482.43 -97548106.553 -67155625.878 -40031638.486 -19868578.694 -10358880.818 
-7362188.3834 -6738144.9129 -7046487.5074 -6846953.2675 -6404230.7446 -5983008.4902 -5554667.3387 -5090588.1246 -4606072.9493 
-4116423.9148 -3626002.365 -3139169.6442 -2662966.2464 -2204432.6657 -1763260.8873 -1339142.8968 -956074.86748 -638052.97255 
-361549.3454 -103036.11938 83075.359738 142373.7462 -371022.9429 -1902996.6905 -242343777.25 -208843736.45 -170063064.89 
-131048279.67 -96845897.875 -66672200.162 -39743467.194 -19725552.972 -10284311.498 -7309191.0188 -6689639.7804 -6995762.7435 
-6797664.8685 -6358129.3228 -5939939.2741 -5514681.5743 -5053943.0754 -4572915.7256 -4086791.4729 -3599900.2661 -3116572.0537 
-2643796.6482 -2188563.862 -1750567.8978 -1329502.9582 -949192.47793 -633459.89175 -358946.70044 -102294.40476 82477.334409 
141348.8562 -368352.10141 -1889297.8004 -240299448.25 -207082002.31 -168628471.2 -129942801.32 -96028939.091 -66109776.345 
-39408204.934 -19559154.972 -10197556.573 -7247533.19 -6633208.2734 -6936748.8881 -6740322.0988 -6304494.3243 -5889831.9834 
-5468161.6117 -5011309.7448 -4534340.1767 -4052316.7015 -3569532.742 -3090281.7206 -2621494.4863 -2170101.8878 -1735800.7073 
-1318287.7271 -941185.41566 -628116.24131 -355918.74913 -101431.48421 81781.583928 140156.48573 -365244.80938 -1873360.332 
-237983052 -205085809.74 -167002956.19 -128690201.62 -95103256.257 -65472502.98 -39028324.668 -19370612.078 -10099255.965 
-7177669.6974 -6569266.6418 -6869881.2393 -6675347.9303 -6243721.3715 -5833056.2196 -5415450.5916 -4963002.6047 -4490630.8438 
-4013253.8935 -3535123.7896 -3060492.5678 -2596224.266 -2149182.9223 -1719068.2417 -1305579.9295 -932112.74245 -622061.43712 
-352487.82633 -100453.72287 80993.240238 138805.42995 -361723.98688 -1855301.8434 -235411206.5 -202869479.57 -165198181.45 
-127299466.81 -94075490.29 -64764951.914 -38606551.688 -19161276.913 -9990114.8908 -7100101.7471 -6498273.6079 -6795639.5106 
-6603208.4926 -6176246.4544 -5770019.2963 -5356926.6668 -4909368.2144 -4442101.3009 -3969883.2885 -3496920.2616 -3027418.3049 
-2568167.2778 -2125957.0397 -1700490.541 -1291470.7322 -922039.54637 -615338.91685 -348678.54577 -99368.135315 80117.958941 
137305.38141 -357814.89255 -1835251.8876 -232601787.14 -200448416.22 -163226690.9 -125780263.06 -92952784.586 -63992040.917 
-38145817.487 -18932604.441 -9870891.9248 -7015368.4685 -6420722.6027 -6714539.7128 -6524405.1846 -6102538.5512 -5701159.3461 
-5292996.6027 -4850779.3547 -4389088.8483 -3922506.3298 -3455187.688 -2991288.8115 -2537518.5292 -2100585.6695 -1680196.7278 
-1276058.1996 -911035.84015 -607995.40464 -344517.38338 -98182.266695 79161.823719 135666.76616 -353544.69614 -1813349.8199 
-229573638.77 -197838859.55 -161101708.78 -124142780.81 -91742669.967 -63158954.48 -37649212.554 -18686128.54 -9742386.785 
-6924038.231 -6337133.8185 -6627125.8428 -6439466.5988 -6023092.0761 -5626938.264 -5224089.2258 -4787629.0249 -4331949.08 
-3871440.8101 -3410206.0002 -2952346.4352 -2504483.6041 -2073238.9961 -1658322.9276 -1259445.7151 -899175.43375 -600080.15881 
-340032.25109 -96904.07143 78131.248153 133900.57563 -348942.04099 -1789742.5537 -226346289.09 -195057637.88 -158836938.53 
-122397579.72 -90452950.128 -62271064.945 -37119939.356 -18423438.663 -9605428.1647 -6826699.997 -6248046.2956 -6533961.6076 
-6348940.4801 -5938419.3567 -5547834.6809 -5150648.9006 -4720324.4638 -4271050.4744 -3817016.0367 -3362265.2727 -2910842.3044 
-2469275.5358 -2044093.371 -1635010.1989 -1241740.4082 -886534.81191 -591644.22285 -335252.07255 -95541.792509 77032.877903 
132018.19931 -344036.6085 -1764582.3257 -222939670.34 -192121928.13 -156446367.44 -120555438.23 -89091590.428 -61333855.951 
-36561266.704 -18146157.193 -9460861.9248 -6723954.9307 -6154010.2414 -6435622.3929 -6253385.9211 -5849043.3349 -5464337.1434 
-5073129.1972 -4649281.3468 -4206769.1437 -3759568.1392 -3311661.5894 -2867032.7504 -2432111.7706 -2013328.7987 -1610402.5219 
-1223051.6277 -873192.04373 -582739.6976 -330206.37049 -94103.843581 75873.496402 130031.26272 -338858.6949 -1738024.5267 
-219373855.58 -189049028.61 -153944081.67 -118627210.92 -87666612.507 -60352849.886 -35976486.507 -17855917.977 -9309539.9056 
-6616408.4466 -6055579.7535 -6332687.6516 -6153365.9661 -5755490.6487 -5376937.6511 -4991986.8912 -4574918.2871 -4139483.8577 
-3699435.6222 -3258693.1261 -2821175.9154 -2393211.2914 -1981126.5553 -1584644.8941 -1203489.4945 -859225.74938 -573419.05136 
-324924.87556 -92598.697063 74659.935641 127951.47407 -333438.81009 -1710225.6452 -215668814.67 -185856148.66 -151344094.91 
-116623696.56 -86185996.756 -59333540.738 -35368873.745 -17554346.46 -9152309.5654 -6504662.8445 -5953306.0788 -6225733.856 
-6049440.7635 -5658285.2272 -5286125.6729 -4907676.4092 -4497651.7448 -4069571.4385 -3636955.2494 -3203656.5254 -2773528.6143 
-2352791.9546 -1947666.9849 -1557881.5672 -1183163.5634 -844714.1449 -563734.48288 -319437.16581 -91034.782127 73398.992167 
125790.48108 -327807.30729 -1681341.3648 -211844193.71 -182560218.64 -148660193.68 -114555518.86 -84657594.192 -58281333.428 
-34741650.305 -17243041.733 -8990004.6195 -6389310.6533 -5847731.5212 -6115328.1275 -5942161.3763 -5557942.5021 -5192382.7395 
-4820644.8078 -4417891.4262 -3997402.5974 -3572458.3241 -3146843.6197 -2724343.4978 -2311068.0851 -1913127.5082 -1530254.4552 
-1162181.6142 -829734.17968 -553737.34627 -313772.34155 -89420.393088 72097.350626 123559.74112 -321994.04863 -1651524.8457 

displacement 3 1089 double
6.9377296662e-06 0 0 7.411839525e-06 0 0 7.8189092318e-06 0 0 
8.1596355371e-06 0 0 8.4347151914e-06 0 0 8.6523159027e-06 0 0 
8.8206053787e-06 0 0 8.9471219069e-06 0 0 9.0394037752e-06 0 0 
9.1035119426e-06 0 0 9.1455073685e-06 0 0 9.1696506587e-06 0 0 
9.1802024192e-06 0 0 9.1800576848e-06 0 0 9.1721114901e-06 0 0 
9.1582971916e-06 0 0 9.1405481453e-06 0 0 9.1202054841e-06 0 0 
9.0986103406e-06 0 0 9.0767933868e-06 0 0 9.0557852948e-06 0 0 
9.036527817e-06 0 0 9.0199627058e-06 0 0 9.0071074598e-06 0 0 
8.9989795772e-06 0 0 8.9967960223e-06 0 0 9.0017737589e-06 0 0 
9.0152649452e-06 0 0 9.038621739e-06 0 0 9.0731503599e-06 0 0 
9.1201570273e-06 0 0 9.1793167399e-06 0 0 9.2503044959e-06 0 0 
7.0557652492e-06 3.1839438708e-07 0 7.5379414116e-06 3.4015279007e-07 0 7.9519368293e-06 3.5883450815e-07 0 
8.298460107e-06 3.7447151743e-07 0 8.5782198497e-06 3.8709579398e-07 0 8.7995227269e-06 3.970821798e-07 0 
8.9706754085e-06 4.0480551684e-07 0 9.0993444352e-06 4.1061176102e-07 0 9.1931963479e-06 4.1484686823e-07 0 
9.2583952245e-06 4.1778899507e-07 0 9.3011051426e-06 4.1971629817e-07 0 9.3256591965e-06 4.2082431022e-07 0 
9.3363904802e-06 4.2130856393e-07 0 9.3362432833e-06 4.2130192161e-07 0 9.3281618955e-06 4.2093724557e-07 0 
9.3141125663e-06 4.2030326366e-07 0 9.2960615453e-06 4.1948870371e-07 0 9.2753727827e-06 4.1855511456e-07 0 
9.2534102286e-06 4.1756404503e-07 0 9.2312220905e-06 4.1656279592e-07 0 9.2098565757e-06 4.1559866805e-07 0 
9.1902714593e-06 4.147148814e-07 0 9.1734245164e-06 4.1395465598e-07 0 9.1603505567e-06 4.1336468803e-07 0 
9.1520843898e-06 4.1299167376e-07 0 9.1498636848e-06 4.128914635e-07 0 9.1549261105e-06 4.131199076e-07 0 
9.1686468301e-06 4.1373906087e-07 0 9.1924010065e-06 4.1481097811e-07 0 9.2275170826e-06 4.1639560588e-07 0 
9.2753235015e-06 4.1855289072e-07 0 9.3354897323e-06 4.212679173e-07 0 9.4076852438e-06 4.2452577025e-07 0 
7.1546705615e-06 6.5152664039e-07 0 7.643605705e-06 6.9605060117e-07 0 8.0634043693e-06 7.3427877828e-07 0 
8.4147850923e-06 7.6627660403e-07 0 8.6984664116e-06 7.9210951071e-07 0 8.9228714372e-06 8.12544533e-07 0 
9.0964232787e-06 8.2834870557e-07 0 9.226895944e-06 8.4022995384e-07 0 9.3220634408e-06 8.4889620325e-07 0 
9.388176253e-06 8.5491664235e-07 0 9.4314848642e-06 8.5886045971e-07 0 9.4563831085e-06 8.6112777157e-07 0 
9.4672648196e-06 8.6211869417e-07 0 9.4671155594e-06 8.6210510206e-07 0 9.4589208894e-06 8.6135886983e-07 0 
9.4446746215e-06 8.6006156019e-07 0 9.4263705675e-06 8.5839473588e-07 0 9.4053917968e-06 8.5648434352e-07 0 
9.3831213792e-06 8.5445632975e-07 0 9.3606222153e-06 8.5240748564e-07 0 9.338957206e-06 8.5043460225e-07 0 
9.3190975522e-06 8.4862612016e-07 0 9.3020144546e-06 8.4707047996e-07 0 9.2887572285e-06 8.4586323556e-07 0 
9.2803751893e-06 8.450999409e-07 0 9.2781233552e-06 8.4489488185e-07 0 9.2832567443e-06 8.4536234429e-07 0 
9.2971697962e-06 8.4662931024e-07 0 9.3212569505e-06 8.4882276172e-07 0 9.3568652719e-06 8.5206536664e-07 0 
9.4053418249e-06 8.5647979292e-07 0 9.4663514453e-06 8.6203551945e-07 0 9.539558969e-06 8.6870202513e-07 0 
7.2326206828e-06 9.9758087415e-07 0 7.7268827737e-06 1.0657534537e-06 0 8.1512551436e-06 1.1242862841e-06 0 
8.5064641589e-06 1.1732795516e-06 0 8.7932361857e-06 1.2128334425e-06 0 9.0200861035e-06 1.2441223969e-06 0 
9.195528792e-06 1.2683208553e-06 0 9.3274229567e-06 1.2865127531e-06 0 9.4236273032e-06 1.2997820258e-06 0 
9.4904604143e-06 1.3090001828e-06 0 9.5342408728e-06 1.3150387337e-06 0 9.5594103834e-06 1.3185103139e-06 0 
9.5704106507e-06 1.3200275587e-06 0 9.5702597643e-06 1.3200067472e-06 0 9.5619758135e-06 1.3188641585e-06 0 
9.5475743325e-06 1.3168777911e-06 0 9.5290708558e-06 1.3143256436e-06 0 9.5078635215e-06 1.3114005585e-06 0 
9.4853504677e-06 1.3082953781e-06 0 9.4626061754e-06 1.3051583035e-06 0 9.4407051259e-06 1.3021375356e-06 0 
9.4206291012e-06 1.2993684898e-06 0 9.4033598833e-06 1.2969865812e-06 0 9.3899582198e-06 1.2951381166e-06 0 
9.3814848583e-06 1.2939694028e-06 0 9.3792084904e-06 1.293655428e-06 0 9.3843978078e-06 1.2943711801e-06 0 
9.3984624424e-06 1.296311087e-06 0 9.4228120262e-06 1.2996695763e-06 0 9.4588083002e-06 1.3046344702e-06 0 
9.5078130051e-06 1.3113935909e-06 0 9.5694873252e-06 1.3199002063e-06 0 9.6434924447e-06 1.3301075841e-06 0 
7.2876781985e-06 1.3555519081e-06 0 7.7857028043e-06 1.4481874754e-06 0 8.2133056614e-06 1.5277241746e-06 0 
8.5712186655e-06 1.5942981427e-06 0 8.8601737122e-06 1.6480455166e-06 0 9.0887504997e-06 1.6905621717e-06 0 
9.265528726e-06 1.7234439834e-06 0 9.3984269203e-06 1.7481638455e-06 0 9.4953636116e-06 1.7661946523e-06 0 
9.5627054823e-06 1.7787206446e-06 0 9.6068192147e-06 1.7869260637e-06 0 9.6321803253e-06 1.7916433826e-06 0 
9.643264331e-06 1.7937050742e-06 0 9.643112296e-06 1.7936767948e-06 0 9.6347652844e-06 1.7921242005e-06 0 
9.6202541738e-06 1.7894250468e-06 0 9.6016098415e-06 1.785957089e-06 0 9.5802410687e-06 1.781982369e-06 0 
9.5575566368e-06 1.7777629284e-06 0 9.5346392062e-06 1.7735001487e-06 0 9.5125714374e-06 1.7693954112e-06 0 
9.4923425862e-06 1.7656327234e-06 0 9.4749419083e-06 1.7623960928e-06 0 9.4614382261e-06 1.7598843268e-06 0 
9.4529003621e-06 1.7582962328e-06 0 9.4506066656e-06 1.7578695915e-06 0 9.4558354861e-06 1.7588421835e-06 0 
9.4700071861e-06 1.7614782048e-06 0 9.4945421284e-06 1.7660418515e-06 0 9.53081242e-06 1.7727883435e-06 0 
9.5801901678e-06 1.7819729011e-06 0 9.6423339768e-06 1.7935320227e-06 0 9.7169024519e-06 1.8074022069e-06 0 
7.3179546913e-06 1.7243511537e-06 0 7.818048329e-06 1.8421896861e-06 0 8.2474276524e-06 1.943365597e-06 0 
8.6068275979e-06 2.0280520615e-06 0 8.8969831018e-06 2.096422255e-06 0 9.1265095063e-06 2.1505062357e-06 0 
9.3040221537e-06 2.1923340621e-06 0 9.4374724705e-06 2.2237793521e-06 0 9.5348118831e-06 2.2467157238e-06 0 
9.6024335241e-06 2.2626496096e-06 0 9.6467305259e-06 2.2730874422e-06 0 9.6721969987e-06 2.279088182e-06 0 
9.6833270527e-06 2.2817107893e-06 0 9.683174386e-06 2.281674816e-06 0 9.674792697e-06 2.279699814e-06 0 
9.6602213003e-06 2.276266313e-06 0 9.6414995105e-06 2.2718548427e-06 0 9.6200419617e-06 2.2667987375e-06 0 
9.5972632878e-06 2.2614313316e-06 0 9.5742506472e-06 2.2560087956e-06 0 9.5520911984e-06 2.2507872996e-06 0 
9.5317783069e-06 2.2460009133e-06 0 9.5143053383e-06 2.2418837064e-06 0 9.5007455554e-06 2.2386885749e-06 0 
9.492172221e-06 2.236668415e-06 0 9.4898689954e-06 2.2361256992e-06 0 9.4951195389e-06 2.2373629001e-06 0 
9.509350115e-06 2.2407160926e-06 0 9.5339869871e-06 2.2465213511e-06 0 9.5704079628e-06 2.2551033325e-06 0 
9.6199908493e-06 2.2667866937e-06 0 9.6823928333e-06 2.2814906564e-06 0 9.7572711015e-06 2.2991344427e-06 0 
7.3217944408e-06 2.1019684109e-06 0 7.8221504788e-06 2.2456125127e-06 0 8.2517550987e-06 2.3689450301e-06 0 
8.6113436223e-06 2.472177062e-06 0 8.9016513715e-06 2.5555197075e-06 0 9.1312982091e-06 2.6214475893e-06 0 
9.3089039978e-06 2.6724353301e-06 0 9.4424243363e-06 2.7107668534e-06 0 9.5398148232e-06 2.7387260823e-06 0 
9.6074719454e-06 2.7581493446e-06 0 9.65179219e-06 2.7708729678e-06 0 9.6772720251e-06 2.7781878151e-06 0 
9.688407919e-06 2.7813847496e-06 0 9.6882551723e-06 2.7813408985e-06 0 9.6798690854e-06 2.778933389e-06 0 
9.665290043e-06 2.7747479825e-06 0 9.6465584299e-06 2.7693704402e-06 0 9.6250896222e-06 2.7632070938e-06 0 
9.6022989963e-06 2.7566642748e-06 0 9.5792742809e-06 2.7500542525e-06 0 9.557103205e-06 2.7436892962e-06 0 
9.5367796552e-06 2.7378547348e-06 0 9.5192975185e-06 2.7328358969e-06 0 9.5057306207e-06 2.7289410607e-06 0 
9.4971527879e-06 2.726478504e-06 0 9.4948483539e-06 2.7258169384e-06 0 9.5001016523e-06 2.7273250751e-06 0 
9.5143396952e-06 2.7314125863e-06 0 9.5389894944e-06 2.7384891438e-06 0 9.5754295802e-06 2.7489505013e-06 0 
9.625038483e-06 2.7631924125e-06 0 9.6874732095e-06 2.7811164097e-06 0 9.7623907665e-06 2.802624025e-06 0 
7.2977327166e-06 2.4859964519e-06 0 7.796444427e-06 2.6558842227e-06 0 8.2246372307e-06 2.8017494978e-06 0 
8.5830440331e-06 2.923841944e-06 0 8.8723977396e-06 3.0224112279e-06 0 9.1012898853e-06 3.1003840838e-06 0 
9.2783120054e-06 3.1606872464e-06 0 9.411393554e-06 3.20602191e-06 0 9.508463985e-06 3.239089269e-06 0 
9.5758987647e-06 3.2620611466e-06 0 9.6200733589e-06 3.2771093662e-06 0 9.6454694593e-06 3.2857606306e-06 0 
9.6565687571e-06 3.2895416426e-06 0 9.6564165123e-06 3.2894897799e-06 0 9.6480579848e-06 3.2866424203e-06 0 
9.6335268537e-06 3.2816923431e-06 0 9.6148567986e-06 3.2753323279e-06 0 9.5934585442e-06 3.2680429427e-06 0 
9.5707428154e-06 3.2603047556e-06 0 9.5477937665e-06 3.2524870873e-06 0 9.5256955517e-06 3.2449592583e-06 0 
9.5054387916e-06 3.2380587269e-06 0 9.4880141067e-06 3.2321229512e-06 0 9.474491794e-06 3.2275165313e-06 0 
9.4659421507e-06 3.2246040674e-06 0 9.4636452897e-06 3.2238216342e-06 0 9.4688813241e-06 3.2256053064e-06 0 
9.4830725763e-06 3.2304396028e-06 0 9.5076413685e-06 3.2388090419e-06 0 9.5439617007e-06 3.2511816816e-06 0 
9.593407573e-06 3.2680255792e-06 0 9.6556371193e-06 3.2892242772e-06 0 9.7303084736e-06 3.3146613175e-06 0 
7.2446125318e-06 2.8737683965e-06 0 7.7396941204e-06 3.0701556867e-06 0 8.1647701094e-06 3.2387733923e-06 0 
8.5205680692e-06 3.3799101236e-06 0 8.8078155705e-06 3.4938544909e-06 0 9.0350416106e-06 3.583989748e-06 0 
9.210775187e-06 3.6536991487e-06 0 9.3428880352e-06 3.7061052265e-06 0 9.4392518908e-06 3.7443305148e-06 0 
9.5061958127e-06 3.7708856033e-06 0 9.5500488602e-06 3.7882810819e-06 0 9.5752601024e-06 3.7982817922e-06 0 
9.5862786084e-06 3.8026525759e-06 0 9.5861274719e-06 3.8025926235e-06 0 9.577829786e-06 3.7993011256e-06 0 
9.563404427e-06 3.793578923e-06 0 9.5448702712e-06 3.7862268567e-06 0 9.5236277746e-06 3.777800455e-06 0 
9.5010773936e-06 3.7688552462e-06 0 9.4782953909e-06 3.7598181584e-06 0 9.4563580289e-06 3.7511161198e-06 0 
9.4362487177e-06 3.7431392263e-06 0 9.418950867e-06 3.7362775734e-06 0 9.4055269833e-06 3.7309526325e-06 0 
9.3970395727e-06 3.7275858752e-06 0 9.3947594306e-06 3.7266813962e-06 0 9.399957352e-06 3.72874329e-06 0 
9.4140453061e-06 3.734331652e-06 0 9.438435262e-06 3.7440065773e-06 0 9.4744912186e-06 3.7583091322e-06 0 
9.5235771745e-06 3.7777803831e-06 0 9.585353752e-06 3.802285707e-06 0 9.6594815737e-06 3.8316904805e-06 0 
7.1615405941e-06 3.2624302472e-06 0 7.6509452212e-06 3.4853778711e-06 0 8.0711469831e-06 3.6768002222e-06 0 
8.4228651076e-06 3.8370249438e-06 0 8.7068188225e-06 3.9663796791e-06 0 8.9314393255e-06 4.0687052491e-06 0 
9.1051578143e-06 4.1478424745e-06 0 9.2357557616e-06 4.2073361949e-06 0 9.3310146398e-06 4.2507312495e-06 0 
9.3971909346e-06 4.2808777722e-06 0 9.4405411315e-06 4.3006258964e-06 0 9.4654632834e-06 4.3119791495e-06 0 
9.4763554434e-06 4.3169410584e-06 0 9.4762060398e-06 4.3168729978e-06 0 9.4680035012e-06 4.3131363423e-06 0 
9.4537435538e-06 4.3066402423e-06 0 9.4354219239e-06 4.2982938483e-06 0 9.4144230091e-06 4.2887278207e-06 0 
9.392131207e-06 4.27857282e-06 0 9.369610439e-06 4.2683135143e-06 0 9.3479246267e-06 4.2584345715e-06 0 
9.3280459033e-06 4.2493788456e-06 0 9.3109464022e-06 4.2415891907e-06 0 9.2976764463e-06 4.2355440801e-06 0 
9.2892863586e-06 4.2317219868e-06 0 9.2870323622e-06 4.2306951817e-06 0 9.2921706805e-06 4.2330359358e-06 0 
9.3060970919e-06 4.2393800939e-06 0 9.3302073751e-06 4.2503635012e-06 0 9.3658498882e-06 4.2666004004e-06 0 
9.4143729892e-06 4.2887050342e-06 0 9.4754411921e-06 4.3165245724e-06 0 9.5487190108e-06 4.3499061848e-06 0 
7.0480194827e-06 3.648954925e-06 0 7.5296663157e-06 3.8983168327e-06 0 7.9432072523e-06 4.1124184312e-06 0 
8.2893501194e-06 4.2916261821e-06 0 8.5688027439e-06 4.4363065469e-06 0 8.7898626765e-06 4.5507553977e-06 0 
8.9608274679e-06 4.6392686061e-06 0 9.0893552427e-06 4.7058109955e-06 0 9.1831041255e-06 4.7543473891e-06 0 
9.2482314273e-06 4.7880655973e-06 0 9.2908944588e-06 4.8101534306e-06 0 9.3154215574e-06 4.8228517889e-06 0 
9.3261410604e-06 4.8284015726e-06 0 9.3259940251e-06 4.8283254483e-06 0 9.317921509e-06 4.8241460831e-06 0 
9.303887603e-06 4.8168803412e-06 0 9.2858563983e-06 4.8075450871e-06 0 9.2651903476e-06 4.7968457002e-06 0 
9.2432519039e-06 4.7854875601e-06 0 9.2210881237e-06 4.7740127572e-06 0 9.1997460639e-06 4.7629633816e-06 0 
9.1801824479e-06 4.7528347557e-06 0 9.1633539995e-06 4.7441222017e-06 0 9.1502943922e-06 4.7373608813e-06 0 
9.1420372999e-06 4.7330859559e-06 0 9.1398190327e-06 4.7319374975e-06 0 9.1448759009e-06 4.7345555783e-06 0 
9.158581558e-06 4.7416513766e-06 0 9.1823096572e-06 4.7539360708e-06 0 9.2173871832e-06 4.7720966777e-06 0 
9.2651411206e-06 4.796820214e-06 0 9.3252413013e-06 4.8279357424e-06 0 9.3973575572e-06 4.8652723257e-06 0 
6.9038777231e-06 4.0302097964e-06 0 7.3756742113e-06 4.3056258604e-06 0 7.780757663e-06 4.5420975016e-06 0 
8.1198214291e-06 4.7400294706e-06 0 8.3935588604e-06 4.8998265182e-06 0 8.6100978112e-06 5.0262333632e-06 0 
8.7775661359e-06 5.1239947242e-06 0 8.9034653397e-06 5.1974896824e-06 0 8.995296928e-06 5.2510973188e-06 0 
9.0590922862e-06 5.2883385168e-06 0 9.1008827996e-06 5.3127341599e-06 0 9.1249082851e-06 5.3267592848e-06 0 
9.1354085594e-06 5.3328889281e-06 0 9.1352645312e-06 5.3328048502e-06 0 9.1273571092e-06 5.3281888111e-06 0 
9.113610216e-06 5.3201639205e-06 0 9.0959477744e-06 5.3098532881e-06 0 9.0757043731e-06 5.2980359939e-06 0 
9.0542146009e-06 5.2854911178e-06 0 9.0325041008e-06 5.2728173895e-06 0 9.0115985156e-06 5.2606135386e-06 0 
8.9924350027e-06 5.2494266404e-06 0 8.9759507193e-06 5.2398037701e-06 0 8.9631581991e-06 5.2323360045e-06 0 
8.9550699758e-06 5.2276144207e-06 0 8.9528970752e-06 5.2263459676e-06 0 8.9578505235e-06 5.2292375941e-06 0 
8.9712758809e-06 5.2370747849e-06 0 8.9945187076e-06 5.2506430247e-06 0 9.0288788496e-06 5.2707011118e-06 0 
9.0756561529e-06 5.2980078448e-06 0 9.1345272016e-06 5.3323744264e-06 0 9.2051685802e-06 5.3736120595e-06 0 
6.729397631e-06 4.4030084921e-06 0 7.1892705166e-06 4.7039008351e-06 0 7.5841163887e-06 4.9622463547e-06 0 
7.9146110752e-06 5.1784872415e-06 0 8.1814304043e-06 5.3530656861e-06 0 8.3924968167e-06 5.4911652988e-06 0 
8.5557327534e-06 5.5979696898e-06 0 8.678450136e-06 5.6782630098e-06 0 8.7679608859e-06 5.7368294096e-06 0 
8.8301439589e-06 5.7775154581e-06 0 8.8708783105e-06 5.8041677242e-06 0 8.8942966055e-06 5.819490188e-06 0 
8.9045315088e-06 5.8261868299e-06 0 8.9043911206e-06 5.8260949746e-06 0 8.896683541e-06 5.821051947e-06 0 
8.8832840699e-06 5.8122847455e-06 0 8.866068007e-06 5.8010203686e-06 0 8.8463362125e-06 5.7881099621e-06 0 
8.8253895463e-06 5.7744046717e-06 0 8.8042277306e-06 5.76055861e-06 0 8.7838504874e-06 5.7472258899e-06 0 
8.7651712894e-06 5.7350041917e-06 0 8.7491036095e-06 5.7244911956e-06 0 8.7366343917e-06 5.7163326538e-06 0 
8.7287505801e-06 5.7111743185e-06 0 8.7266325948e-06 5.7097885321e-06 0 8.7314608557e-06 5.7129476372e-06 0 
8.7445469172e-06 5.7215097765e-06 0 8.7672023334e-06 5.7363330928e-06 0 8.8006940995e-06 5.7582465743e-06 0 
8.8462892109e-06 5.7880792092e-06 0 8.9036724254e-06 5.8256247362e-06 0 8.9725285008e-06 5.8706768942e-06 0 
6.5252196215e-06 4.764163388e-06 0 6.9711394112e-06 5.0897362973e-06 0 7.3540051851e-06 5.3692724981e-06 0 
7.6744722658e-06 5.6032504516e-06 0 7.9331959758e-06 5.7921486187e-06 0 8.1378583796e-06 5.9415757933e-06 0 
8.2961415419e-06 6.0571407689e-06 0 8.4151355317e-06 6.1440201143e-06 0 8.5019304179e-06 6.2073903981e-06 0 
8.5622267818e-06 6.2514137024e-06 0 8.6017252041e-06 6.2802521092e-06 0 8.6244329599e-06 6.2968313916e-06 0 
8.634357324e-06 6.3040773227e-06 0 8.6342211953e-06 6.3039779331e-06 0 8.626747473e-06 6.2985212532e-06 0 
8.6137545579e-06 6.2890349258e-06 0 8.5970608511e-06 6.2768465932e-06 0 8.5779277429e-06 6.2628772161e-06 0 
8.5576166237e-06 6.248047755e-06 0 8.5370968829e-06 6.2330659761e-06 0 8.5173379098e-06 6.2186396453e-06 0 
8.4992254611e-06 6.2054154675e-06 0 8.4836452939e-06 6.1940401474e-06 0 8.4715544072e-06 6.1852124046e-06 0 
8.4639097999e-06 6.1796309591e-06 0 8.4618560768e-06 6.1781315042e-06 0 8.4665378425e-06 6.1815497335e-06 0 
8.4792268571e-06 6.1908141786e-06 0 8.5011948808e-06 6.2068533711e-06 0 8.5336704665e-06 6.2305642967e-06 0 
8.5778821674e-06 6.2628439407e-06 0 8.6335243062e-06 6.3034691236e-06 0 8.7002912056e-06 6.3522166656e-06 0 
6.2924523088e-06 5.1105724317e-06 0 6.7224652698e-06 5.4598182067e-06 0 7.0916734747e-06 5.7596798792e-06 0 
7.4007088694e-06 6.0106706999e-06 0 7.6502034e-06 6.2133039193e-06 0 7.8475650967e-06 6.3735961546e-06 0 
8.0002019898e-06 6.4975640228e-06 0 8.1149512318e-06 6.590760488e-06 0 8.1986499752e-06 6.6587385146e-06 0 
8.2567954501e-06 6.7059628155e-06 0 8.2948848867e-06 6.7368981035e-06 0 8.3167826125e-06 6.7546828889e-06 0 
8.3263529551e-06 6.7624556819e-06 0 8.3262216825e-06 6.7623490655e-06 0 8.3190145624e-06 6.7564956228e-06 0 
8.3064851299e-06 6.746319531e-06 0 8.2903869202e-06 6.7332449676e-06 0 8.2719363273e-06 6.7182598574e-06 0 
8.2523497454e-06 6.7023521253e-06 0 8.2325619837e-06 6.686281e-06 0 8.2135078517e-06 6.6708057104e-06 0 
8.1960415095e-06 6.656619984e-06 0 8.1810171172e-06 6.6444175482e-06 0 8.169357536e-06 6.6349479279e-06 0 
8.1619856268e-06 6.6289606475e-06 0 8.160005164e-06 6.6273521652e-06 0 8.164519922e-06 6.6310189387e-06 0 
8.1767562947e-06 6.6409570147e-06 0 8.1979406761e-06 6.6581624396e-06 0 8.2292577943e-06 6.68359742e-06 0 
8.2718923776e-06 6.7182241625e-06 0 8.3255496527e-06 6.7618032598e-06 0 8.3899348466e-06 6.8140953044e-06 0 
6.0325556428e-06 5.4392462524e-06 0 6.444807812e-06 5.8109529053e-06 0 6.7987666392e-06 6.1300994393e-06 0 
7.0950379692e-06 6.3972321136e-06 0 7.3342276467e-06 6.6128971872e-06 0 7.5234377287e-06 6.783498221e-06 0 
7.6697702721e-06 6.9154387758e-06 0 7.7797800351e-06 7.0146289411e-06 0 7.8600217758e-06 7.0869788063e-06 0 
7.9157656728e-06 7.1372402212e-06 0 7.9522819043e-06 7.1701650357e-06 0 7.9732751901e-06 7.1890936056e-06 0 
7.9824502496e-06 7.1973662865e-06 0 7.9823243989e-06 7.1972528134e-06 0 7.9754149539e-06 7.191022921e-06 0 
7.9634030236e-06 7.1801923791e-06 0 7.947969717e-06 7.1662769574e-06 0 7.9302811875e-06 7.1503281169e-06 0 
7.9115035886e-06 7.1333973184e-06 0 7.8925331194e-06 7.1162926185e-06 0 7.8742659787e-06 7.0998220739e-06 0 
7.8575210474e-06 7.0847240276e-06 0 7.8431172064e-06 7.0717368224e-06 0 7.8319392e-06 7.0616581868e-06 0 
7.8248717721e-06 7.0552858494e-06 0 7.8229731082e-06 7.0535739214e-06 0 7.8273013935e-06 7.0574765145e-06 0 
7.8390323683e-06 7.0680537332e-06 0 7.8593417728e-06 7.0863656824e-06 0 7.8893654026e-06 7.1134364506e-06 0 
7.930239053e-06 7.1502901264e-06 0 7.9816801259e-06 7.1966719055e-06 0 8.0434060232e-06 7.2523269836e-06 0 
5.7474217813e-06 5.7474217813e-06 0 6.1401885019e-06 6.1401885019e-06 0 6.4774171649e-06 6.4774171649e-06 0 
6.7596849791e-06 6.7596849791e-06 0 6.9875691535e-06 6.9875691535e-06 0 7.1678360603e-06 7.1678360603e-06 0 
7.3072520719e-06 7.3072520719e-06 0 7.4120621302e-06 7.4120621302e-06 0 7.4885111769e-06 7.4885111769e-06 0 
7.5416202912e-06 7.5416202912e-06 0 7.5764105521e-06 7.5764105521e-06 0 7.5964115724e-06 7.5964115725e-06 0 
7.605152965e-06 7.605152965e-06 0 7.6050330627e-06 7.6050330627e-06 0 7.5984501985e-06 7.5984501985e-06 0 
7.5870060223e-06 7.5870060223e-06 0 7.572302184e-06 7.572302184e-06 0 7.5554497179e-06 7.5554497179e-06 0 
7.5375596582e-06 7.5375596582e-06 0 7.5194858442e-06 7.5194858442e-06 0 7.5020821154e-06 7.5020821154e-06 0 
7.4861286475e-06 7.4861286475e-06 0 7.4724056163e-06 7.4724056163e-06 0 7.4617559478e-06 7.4617559478e-06 0 
7.455022568e-06 7.455022568e-06 0 7.453213646e-06 7.453213646e-06 0 7.4573373512e-06 7.4573373512e-06 0 
7.4685138515e-06 7.4685138515e-06 0 7.4878633148e-06 7.4878633148e-06 0 7.5164678522e-06 7.5164678523e-06 0 
7.5554095749e-06 7.5554095749e-06 0 7.6044192418e-06 7.6044192418e-06 0 7.6632276122e-06 7.6632276122e-06 0 
5.4392462524e-06 6.0325556428e-06 0 5.8109529053e-06 6.444807812e-06 0 6.1300994393e-06 6.7987666392e-06 0 
6.3972321135e-06 7.0950379692e-06 0 6.6128971872e-06 7.3342276467e-06 0 6.783498221e-06 7.5234377287e-06 0 
6.9154387758e-06 7.6697702721e-06 0 7.0146289411e-06 7.7797800351e-06 0 7.0869788063e-06 7.8600217758e-06 0 
7.1372402212e-06 7.9157656728e-06 0 7.1701650357e-06 7.9522819043e-06 0 7.1890936056e-06 7.9732751901e-06 0 
7.1973662865e-06 7.9824502496e-06 0 7.1972528134e-06 7.9823243989e-06 0 7.191022921e-06 7.9754149539e-06 0 
7.1801923791e-06 7.9634030236e-06 0 7.1662769574e-06 7.947969717e-06 0 7.1503281169e-06 7.9302811875e-06 0 
7.1333973184e-06 7.9115035887e-06 0 7.1162926185e-06 7.8925331194e-06 0 7.0998220739e-06 7.8742659787e-06 0 
7.0847240276e-06 7.8575210474e-06 0 7.0717368224e-06 7.8431172064e-06 0 7.0616581868e-06 7.8319392e-06 0 
7.0552858494e-06 7.8248717721e-06 0 7.0535739214e-06 7.8229731082e-06 0 7.0574765145e-06 7.8273013935e-06 0 
7.0680537332e-06 7.8390323683e-06 0 7.0863656824e-06 7.8593417728e-06 0 7.1134364506e-06 7.8893654026e-06 0 
7.1502901264e-06 7.930239053e-06 0 7.1966719055e-06 7.9816801259e-06 0 7.2523269835e-06 8.0434060232e-06 0 
5.1105724317e-06 6.2924523088e-06 0 5.4598182067e-06 6.7224652698e-06 0 5.7596798792e-06 7.0916734747e-06 0 
6.0106706999e-06 7.4007088694e-06 0 6.2133039193e-06 7.6502034e-06 0 6.3735961546e-06 7.8475650967e-06 0 
6.4975640228e-06 8.0002019898e-06 0 6.590760488e-06 8.1149512318e-06 0 6.6587385146e-06 8.1986499752e-06 0 
6.7059628155e-06 8.2567954501e-06 0 6.7368981035e-06 8.2948848867e-06 0 6.7546828889e-06 8.3167826125e-06 0 
6.7624556819e-06 8.3263529552e-06 0 6.7623490655e-06 8.3262216825e-06 0 6.7564956228e-06 8.3190145624e-06 0 
6.746319531e-06 8.3064851299e-06 0 6.7332449676e-06 8.2903869202e-06 0 6.7182598574e-06 8.2719363273e-06 0 
6.7023521253e-06 8.2523497454e-06 0 6.686281e-06 8.2325619837e-06 0 6.6708057104e-06 8.2135078517e-06 0 
6.656619984e-06 8.1960415095e-06 0 6.6444175482e-06 8.1810171172e-06 0 6.6349479279e-06 8.169357536e-06 0 
6.6289606475e-06 8.1619856268e-06 0 6.6273521652e-06 8.160005164e-06 0 6.6310189387e-06 8.164519922e-06 0 
6.6409570147e-06 8.1767562947e-06 0 6.6581624396e-06 8.1979406761e-06 0 6.68359742e-06 8.2292577943e-06 0 
6.7182241625e-06 8.2718923776e-06 0 6.7618032598e-06 8.3255496527e-06 0 6.8140953044e-06 8.3899348466e-06 0 
4.764163388e-06 6.5252196215e-06 0 5.0897362973e-06 6.9711394112e-06 0 5.3692724981e-06 7.3540051851e-06 0 
5.6032504516e-06 7.6744722658e-06 0 5.7921486187e-06 7.9331959758e-06 0 5.9415757933e-06 8.1378583796e-06 0 
6.0571407689e-06 8.2961415419e-06 0 6.1440201143e-06 8.4151355317e-06 0 6.2073903981e-06 8.5019304179e-06 0 
6.2514137024e-06 8.5622267818e-06 0 6.2802521092e-06 8.6017252042e-06 0 6.2968313916e-06 8.6244329599e-06 0 
6.3040773227e-06 8.634357324e-06 0 6.3039779331e-06 8.6342211953e-06 0 6.2985212532e-06 8.626747473e-06 0 
6.2890349258e-06 8.6137545579e-06 0 6.2768465932e-06 8.5970608511e-06 0 6.2628772161e-06 8.5779277429e-06 0 
6.248047755e-06 8.5576166238e-06 0 6.2330659761e-06 8.5370968829e-06 0 6.2186396453e-06 8.5173379098e-06 0 
6.2054154675e-06 8.4992254611e-06 0 6.1940401474e-06 8.4836452939e-06 0 6.1852124046e-06 8.4715544072e-06 0 
6.1796309591e-06 8.4639097999e-06 0 6.1781315042e-06 8.4618560768e-06 0 6.1815497335e-06 8.4665378425e-06 0 
6.1908141786e-06 8.4792268571e-06 0 6.2068533711e-06 8.5011948808e-06 0 6.2305642967e-06 8.5336704665e-06 0 
6.2628439407e-06 8.5778821674e-06 0 6.3034691236e-06 8.6335243062e-06 0 6.3522166656e-06 8.7002912056e-06 0 
4.403008492e-06 6.729397631e-06 0 4.7039008351e-06 7.1892705166e-06 0 4.9622463547e-06 7.5841163887e-06 0 
5.1784872415e-06 7.9146110752e-06 0 5.3530656861e-06 8.1814304043e-06 0 5.4911652988e-06 8.3924968167e-06 0 
5.5979696898e-06 8.5557327534e-06 0 5.6782630098e-06 8.678450136e-06 0 5.7368294096e-06 8.7679608859e-06 0 
5.7775154581e-06 8.8301439589e-06 0 5.8041677242e-06 8.8708783105e-06 0 5.819490188e-06 8.8942966055e-06 0 
5.8261868299e-06 8.9045315088e-06 0 5.8260949746e-06 8.9043911206e-06 0 5.821051947e-06 8.896683541e-06 0 
5.8122847455e-06 8.8832840699e-06 0 5.8010203686e-06 8.866068007e-06 0 5.7881099621e-06 8.8463362125e-06 0 
5.7744046717e-06 8.8253895463e-06 0 5.76055861e-06 8.8042277306e-06 0 5.7472258899e-06 8.7838504874e-06 0 
5.7350041917e-06 8.7651712894e-06 0 5.7244911956e-06 8.7491036095e-06 0 5.7163326538e-06 8.7366343917e-06 0 
5.7111743185e-06 8.7287505801e-06 0 5.7097885321e-06 8.7266325948e-06 0 5.7129476372e-06 8.7314608557e-06 0 
5.7215097765e-06 8.7445469172e-06 0 5.7363330928e-06 8.7672023334e-06 0 5.7582465743e-06 8.8006940995e-06 0 
5.7880792092e-06 8.8462892109e-06 0 5.8256247362e-06 8.9036724254e-06 0 5.8706768942e-06 8.9725285008e-06 0 
4.0302097964e-06 6.9038777231e-06 0 4.3056258604e-06 7.3756742113e-06 0 4.5420975016e-06 7.780757663e-06 0 
4.7400294706e-06 8.1198214291e-06 0 4.8998265182e-06 8.3935588604e-06 0 5.0262333632e-06 8.6100978112e-06 0 
5.1239947242e-06 8.7775661359e-06 0 5.1974896824e-06 8.9034653397e-06 0 5.2510973188e-06 8.995296928e-06 0 
5.2883385168e-06 9.0590922862e-06 0 5.3127341599e-06 9.1008827996e-06 0 5.3267592848e-06 9.1249082851e-06 0 
5.3328889281e-06 9.1354085594e-06 0 5.3328048502e-06 9.1352645312e-06 0 5.3281888111e-06 9.1273571092e-06 0 
5.3201639205e-06 9.113610216e-06 0 5.3098532881e-06 9.0959477744e-06 0 5.2980359939e-06 9.0757043732e-06 0 
5.2854911178e-06 9.054214601e-06 0 5.2728173895e-06 9.0325041008e-06 0 5.2606135386e-06 9.0115985156e-06 0 
5.2494266404e-06 8.9924350027e-06 0 5.2398037701e-06 8.9759507193e-06 0 5.2323360045e-06 8.9631581991e-06 0 
5.2276144207e-06 8.9550699758e-06 0 5.2263459676e-06 8.9528970752e-06 0 5.2292375941e-06 8.9578505235e-06 0 
5.2370747849e-06 8.9712758809e-06 0 5.2506430247e-06 8.9945187076e-06 0 5.2707011118e-06 9.0288788496e-06 0 
5.2980078448e-06 9.0756561529e-06 0 5.3323744264e-06 9.1345272016e-06 0 5.3736120595e-06 9.2051685802e-06 0 
3.648954925e-06 7.0480194827e-06 0 3.8983168327e-06 7.5296663157e-06 0 4.1124184312e-06 7.9432072523e-06 0 
4.2916261821e-06 8.2893501194e-06 0 4.4363065469e-06 8.5688027439e-06 0 4.5507553977e-06 8.7898626765e-06 0 
4.6392686061e-06 8.9608274679e-06 0 4.7058109955e-06 9.0893552427e-06 0 4.7543473891e-06 9.1831041255e-06 0 
4.7880655973e-06 9.2482314273e-06 0 4.8101534306e-06 9.2908944588e-06 0 4.8228517889e-06 9.3154215574e-06 0 
4.8284015726e-06 9.3261410604e-06 0 4.8283254483e-06 9.3259940251e-06 0 4.8241460831e-06 9.317921509e-06 0 
4.8168803412e-06 9.303887603e-06 0 4.8075450871e-06 9.2858563983e-06 0 4.7968457002e-06 9.2651903477e-06 0 
4.7854875601e-06 9.2432519039e-06 0 4.7740127572e-06 9.2210881237e-06 0 4.7629633816e-06 9.1997460639e-06 0 
4.7528347557e-06 9.1801824479e-06 0 4.7441222017e-06 9.1633539995e-06 0 4.7373608813e-06 9.1502943922e-06 0 
4.7330859559e-06 9.1420372999e-06 0 4.7319374975e-06 9.1398190327e-06 0 4.7345555783e-06 9.144875901e-06 0 
4.7416513766e-06 9.158581558e-06 0 4.7539360708e-06 9.1823096572e-06 0 4.7720966777e-06 9.2173871832e-06 0 
4.796820214e-06 9.2651411206e-06 0 4.8279357424e-06 9.3252413013e-06 0 4.8652723257e-06 9.3973575572e-06 0 
3.2624302472e-06 7.1615405941e-06 0 3.4853778711e-06 7.6509452212e-06 0 3.6768002222e-06 8.0711469831e-06 0 
3.8370249438e-06 8.4228651076e-06 0 3.9663796791e-06 8.7068188225e-06 0 4.0687052491e-06 8.9314393255e-06 0 
4.1478424745e-06 9.1051578143e-06 0 4.2073361948e-06 9.2357557616e-06 0 4.2507312495e-06 9.3310146398e-06 0 
4.2808777722e-06 9.3971909346e-06 0 4.3006258964e-06 9.4405411315e-06 0 4.3119791495e-06 9.4654632834e-06 0 
4.3169410584e-06 9.4763554434e-06 0 4.3168729978e-06 9.4762060398e-06 0 4.3131363423e-06 9.4680035012e-06 0 
4.3066402423e-06 9.4537435538e-06 0 4.2982938483e-06 9.4354219239e-06 0 4.2887278207e-06 9.4144230091e-06 0 
4.27857282e-06 9.392131207e-06 0 4.2683135143e-06 9.369610439e-06 0 4.2584345715e-06 9.3479246267e-06 0 
4.2493788456e-06 9.3280459033e-06 0 4.2415891907e-06 9.3109464022e-06 0 4.2355440801e-06 9.2976764463e-06 0 
4.2317219868e-06 9.2892863586e-06 0 4.2306951817e-06 9.2870323622e-06 0 4.2330359358e-06 9.2921706805e-06 0 
4.2393800939e-06 9.3060970919e-06 0 4.2503635012e-06 9.3302073751e-06 0 4.2666004004e-06 9.3658498882e-06 0 
4.2887050342e-06 9.4143729892e-06 0 4.3165245724e-06 9.4754411921e-06 0 4.3499061848e-06 9.5487190108e-06 0 
2.8737683965e-06 7.2446125318e-06 0 3.0701556867e-06 7.7396941204e-06 0 3.2387733923e-06 8.1647701094e-06 0 
3.3799101236e-06 8.5205680692e-06 0 3.4938544909e-06 8.8078155705e-06 0 3.583989748e-06 9.0350416106e-06 0 
3.6536991487e-06 9.2107751871e-06 0 3.7061052265e-06 9.3428880353e-06 0 3.7443305148e-06 9.4392518908e-06 0 
3.7708856033e-06 9.5061958127e-06 0 3.7882810819e-06 9.5500488602e-06 0 3.7982817922e-06 9.5752601024e-06 0 
3.8026525759e-06 9.5862786084e-06 0 3.8025926235e-06 9.5861274719e-06 0 3.7993011256e-06 9.577829786e-06 0 
3.793578923e-06 9.5634044271e-06 0 3.7862268567e-06 9.5448702712e-06 0 3.777800455e-06 9.5236277746e-06 0 
3.7688552462e-06 9.5010773936e-06 0 3.7598181584e-06 9.4782953909e-06 0 3.7511161198e-06 9.4563580289e-06 0 
3.7431392263e-06 9.4362487177e-06 0 3.7362775734e-06 9.418950867e-06 0 3.7309526325e-06 9.4055269833e-06 0 
3.7275858752e-06 9.3970395728e-06 0 3.7266813962e-06 9.3947594306e-06 0 3.72874329e-06 9.399957352e-06 0 
3.734331652e-06 9.4140453061e-06 0 3.7440065773e-06 9.4384352621e-06 0 3.7583091322e-06 9.4744912186e-06 0 
3.7777803831e-06 9.5235771745e-06 0 3.802285707e-06 9.585353752e-06 0 3.8316904805e-06 9.6594815737e-06 0 
2.4859964519e-06 7.2977327166e-06 0 2.6558842227e-06 7.796444427e-06 0 2.8017494978e-06 8.2246372307e-06 0 
2.923841944e-06 8.5830440331e-06 0 3.0224112279e-06 8.8723977396e-06 0 3.1003840838e-06 9.1012898853e-06 0 
3.1606872464e-06 9.2783120054e-06 0 3.20602191e-06 9.411393554e-06 0 3.239089269e-06 9.5084639851e-06 0 
3.2620611466e-06 9.5758987647e-06 0 3.2771093662e-06 9.6200733589e-06 0 3.2857606306e-06 9.6454694593e-06 0 
3.2895416426e-06 9.6565687571e-06 0 3.2894897799e-06 9.6564165123e-06 0 3.2866424203e-06 9.6480579848e-06 0 
3.2816923431e-06 9.6335268538e-06 0 3.2753323279e-06 9.6148567986e-06 0 3.2680429427e-06 9.5934585442e-06 0 
3.2603047556e-06 9.5707428154e-06 0 3.2524870873e-06 9.5477937666e-06 0 3.2449592583e-06 9.5256955517e-06 0 
3.2380587269e-06 9.5054387916e-06 0 3.2321229512e-06 9.4880141067e-06 0 3.2275165313e-06 9.474491794e-06 0 
3.2246040674e-06 9.4659421507e-06 0 3.2238216342e-06 9.4636452897e-06 0 3.2256053064e-06 9.4688813241e-06 0 
3.2304396028e-06 9.4830725763e-06 0 3.2388090419e-06 9.5076413685e-06 0 3.2511816816e-06 9.5439617007e-06 0 
3.2680255792e-06 9.593407573e-06 0 3.2892242772e-06 9.6556371193e-06 0 3.3146613175e-06 9.7303084736e-06 0 
2.1019684109e-06 7.3217944408e-06 0 2.2456125127e-06 7.8221504788e-06 0 2.3689450301e-06 8.2517550987e-06 0 
2.472177062e-06 8.6113436223e-06 0 2.5555197075e-06 8.9016513715e-06 0 2.6214475893e-06 9.1312982091e-06 0 
2.6724353301e-06 9.3089039979e-06 0 2.7107668534e-06 9.4424243363e-06 0 2.7387260823e-06 9.5398148232e-06 0 
2.7581493446e-06 9.6074719455e-06 0 2.7708729678e-06 9.65179219e-06 0 2.7781878151e-06 9.6772720251e-06 0 
2.7813847496e-06 9.688407919e-06 0 2.7813408985e-06 9.6882551723e-06 0 2.778933389e-06 9.6798690854e-06 0 
2.7747479825e-06 9.665290043e-06 0 2.7693704402e-06 9.6465584299e-06 0 2.7632070938e-06 9.6250896222e-06 0 
2.7566642748e-06 9.6022989963e-06 0 2.7500542525e-06 9.5792742809e-06 0 2.7436892962e-06 9.557103205e-06 0 
2.7378547348e-06 9.5367796552e-06 0 2.7328358969e-06 9.5192975185e-06 0 2.7289410607e-06 9.5057306208e-06 0 
2.726478504e-06 9.4971527879e-06 0 2.7258169384e-06 9.4948483539e-06 0 2.7273250751e-06 9.5001016523e-06 0 
2.7314125863e-06 9.5143396952e-06 0 2.7384891438e-06 9.5389894944e-06 0 2.7489505013e-06 9.5754295802e-06 0 
2.7631924125e-06 9.625038483e-06 0 2.7811164097e-06 9.6874732095e-06 0 2.802624025e-06 9.7623907665e-06 0 
1.7243511537e-06 7.3179546913e-06 0 1.8421896861e-06 7.818048329e-06 0 1.943365597e-06 8.2474276524e-06 0 
2.0280520615e-06 8.6068275979e-06 0 2.096422255e-06 8.8969831018e-06 0 2.1505062357e-06 9.1265095063e-06 0 
2.1923340621e-06 9.3040221537e-06 0 2.2237793521e-06 9.4374724705e-06 0 2.2467157238e-06 9.5348118832e-06 0 
2.2626496096e-06 9.6024335241e-06 0 2.2730874422e-06 9.6467305259e-06 0 2.279088182e-06 9.6721969987e-06 0 
2.2817107893e-06 9.6833270527e-06 0 2.281674816e-06 9.683174386e-06 0 2.279699814e-06 9.674792697e-06 0 
2.276266313e-06 9.6602213003e-06 0 2.2718548427e-06 9.6414995105e-06 0 2.2667987375e-06 9.6200419617e-06 0 
2.2614313316e-06 9.5972632878e-06 0 2.2560087956e-06 9.5742506472e-06 0 2.2507872996e-06 9.5520911984e-06 0 
2.2460009133e-06 9.5317783069e-06 0 2.2418837064e-06 9.5143053383e-06 0 2.2386885749e-06 9.5007455554e-06 0 
2.236668415e-06 9.492172221e-06 0 2.2361256992e-06 9.4898689954e-06 0 2.2373629001e-06 9.4951195389e-06 0 
2.2407160926e-06 9.509350115e-06 0 2.2465213511e-06 9.5339869871e-06 0 2.2551033325e-06 9.5704079628e-06 0 
2.2667866937e-06 9.6199908493e-06 0 2.2814906564e-06 9.6823928333e-06 0 2.2991344427e-06 9.7572711015e-06 0 
1.3555519081e-06 7.2876781985e-06 0 1.4481874754e-06 7.7857028043e-06 0 1.5277241746e-06 8.2133056614e-06 0 
1.5942981427e-06 8.5712186655e-06 0 1.6480455166e-06 8.8601737123e-06 0 1.6905621717e-06 9.0887504997e-06 0 
1.7234439834e-06 9.265528726e-06 0 1.7481638455e-06 9.3984269203e-06 0 1.7661946523e-06 9.4953636116e-06 0 
1.7787206446e-06 9.5627054824e-06 0 1.7869260637e-06 9.6068192147e-06 0 1.7916433826e-06 9.6321803253e-06 0 
1.7937050742e-06 9.643264331e-06 0 1.7936767948e-06 9.643112296e-06 0 1.7921242005e-06 9.6347652844e-06 0 
1.7894250468e-06 9.6202541738e-06 0 1.785957089e-06 9.6016098415e-06 0 1.781982369e-06 9.5802410687e-06 0 
1.7777629284e-06 9.5575566368e-06 0 1.7735001487e-06 9.5346392062e-06 0 1.7693954112e-06 9.5125714374e-06 0 
1.7656327234e-06 9.4923425862e-06 0 1.7623960928e-06 9.4749419083e-06 0 1.7598843268e-06 9.4614382261e-06 0 
1.7582962328e-06 9.4529003621e-06 0 1.7578695915e-06 9.4506066656e-06 0 1.7588421835e-06 9.4558354861e-06 0 
1.7614782048e-06 9.4700071861e-06 0 1.7660418515e-06 9.4945421285e-06 0 1.7727883435e-06 9.53081242e-06 0 
1.7819729011e-06 9.5801901678e-06 0 1.7935320227e-06 9.6423339768e-06 0 1.8074022069e-06 9.7169024519e-06 0 
9.9758087415e-07 7.2326206828e-06 0 1.0657534537e-06 7.7268827737e-06 0 1.1242862841e-06 8.1512551436e-06 0 
1.1732795516e-06 8.5064641589e-06 0 1.2128334425e-06 8.7932361857e-06 0 1.2441223969e-06 9.0200861035e-06 0 
1.2683208553e-06 9.195528792e-06 0 1.2865127531e-06 9.3274229567e-06 0 1.2997820258e-06 9.4236273032e-06 0 
1.3090001828e-06 9.4904604143e-06 0 1.3150387337e-06 9.5342408728e-06 0 1.3185103139e-06 9.5594103834e-06 0 
1.3200275587e-06 9.5704106508e-06 0 1.3200067472e-06 9.5702597643e-06 0 1.3188641585e-06 9.5619758135e-06 0 
1.3168777911e-06 9.5475743325e-06 0 1.3143256436e-06 9.5290708558e-06 0 1.3114005585e-06 9.5078635215e-06 0 
1.3082953781e-06 9.4853504677e-06 0 1.3051583035e-06 9.4626061754e-06 0 1.3021375356e-06 9.4407051259e-06 0 
1.2993684898e-06 9.4206291012e-06 0 1.2969865812e-06 9.4033598833e-06 0 1.2951381166e-06 9.3899582198e-06 0 
1.2939694028e-06 9.3814848583e-06 0 1.293655428e-06 9.3792084904e-06 0 1.2943711801e-06 9.3843978078e-06 0 
1.296311087e-06 9.3984624424e-06 0 1.2996695763e-06 9.4228120262e-06 0 1.3046344702e-06 9.4588083002e-06 0 
1.3113935909e-06 9.5078130051e-06 0 1.3199002063e-06 9.5694873253e-06 0 1.3301075841e-06 9.6434924447e-06 0 
6.5152664039e-07 7.1546705615e-06 0 6.9605060117e-07 7.643605705e-06 0 7.3427877828e-07 8.0634043693e-06 0 
7.6627660403e-07 8.4147850923e-06 0 7.9210951071e-07 8.6984664116e-06 0 8.12544533e-07 8.9228714372e-06 0 
8.2834870557e-07 9.0964232787e-06 0 8.4022995384e-07 9.226895944e-06 0 8.4889620325e-07 9.3220634408e-06 0 
8.5491664235e-07 9.388176253e-06 0 8.5886045971e-07 9.4314848642e-06 0 8.6112777157e-07 9.4563831085e-06 0 
8.6211869417e-07 9.4672648196e-06 0 8.6210510206e-07 9.4671155594e-06 0 8.6135886983e-07 9.4589208894e-06 0 
8.6006156019e-07 9.4446746215e-06 0 8.5839473588e-07 9.4263705675e-06 0 8.5648434352e-07 9.4053917969e-06 0 
8.5445632975e-07 9.3831213792e-06 0 8.5240748564e-07 9.3606222153e-06 0 8.5043460225e-07 9.338957206e-06 0 
8.4862612016e-07 9.3190975522e-06 0 8.4707047996e-07 9.3020144546e-06 0 8.4586323556e-07 9.2887572285e-06 0 
8.450999409e-07 9.2803751893e-06 0 8.4489488185e-07 9.2781233552e-06 0 8.4536234429e-07 9.2832567443e-06 0 
8.4662931024e-07 9.2971697962e-06 0 8.4882276172e-07 9.3212569506e-06 0 8.5206536664e-07 9.3568652719e-06 0 
8.5647979292e-07 9.4053418249e-06 0 8.6203551945e-07 9.4663514453e-06 0 8.6870202513e-07 9.539558969e-06 0 
3.1839438708e-07 7.0557652492e-06 0 3.4015279007e-07 7.5379414116e-06 0 3.5883450815e-07 7.9519368293e-06 0 
3.7447151743e-07 8.298460107e-06 0 3.8709579398e-07 8.5782198497e-06 0 3.970821798e-07 8.7995227269e-06 0 
4.0480551684e-07 8.9706754085e-06 0 4.1061176102e-07 9.0993444352e-06 0 4.1484686823e-07 9.1931963479e-06 0 
4.1778899507e-07 9.2583952245e-06 0 4.1971629817e-07 9.3011051426e-06 0 4.2082431022e-07 9.3256591965e-06 0 
4.2130856393e-07 9.3363904802e-06 0 4.2130192161e-07 9.3362432833e-06 0 4.2093724557e-07 9.3281618955e-06 0 
4.2030326366e-07 9.3141125663e-06 0 4.1948870371e-07 9.2960615453e-06 0 4.1855511456e-07 9.2753727827e-06 0 
4.1756404503e-07 9.2534102286e-06 0 4.1656279592e-07 9.2312220905e-06 0 4.1559866805e-07 9.2098565757e-06 0 
4.147148814e-07 9.1902714593e-06 0 4.1395465598e-07 9.1734245165e-06 0 4.1336468803e-07 9.1603505567e-06 0 
4.1299167376e-07 9.1520843898e-06 0 4.128914635e-07 9.1498636848e-06 0 4.131199076e-07 9.1549261105e-06 0 
4.1373906087e-07 9.1686468301e-06 0 4.1481097811e-07 9.1924010065e-06 0 4.1639560588e-07 9.2275170826e-06 0 
4.1855289072e-07 9.2753235015e-06 0 4.212679173e-07 9.3354897323e-06 0 4.2452577025e-07 9.4076852438e-06 0 
0 6.9377296662e-06 0 0 7.411839525e-06 0 0 7.8189092318e-06 0 
0 8.1596355371e-06 0 0 8.4347151914e-06 0 0 8.6523159027e-06 0 
0 8.8206053787e-06 0 0 8.9471219069e-06 0 0 9.0394037752e-06 0 
0 9.1035119427e-06 0 0 9.1455073685e-06 0 0 9.1696506587e-06 0 
0 9.1802024192e-06 0 0 9.1800576848e-06 0 0 9.1721114902e-06 0 
0 9.1582971916e-06 0 0 9.1405481453e-06 0 0 9.1202054841e-06 0 
0 9.0986103406e-06 0 0 9.0767933868e-06 0 0 9.0557852948e-06 0 
0 9.036527817e-06 0 0 9.0199627058e-06 0 0 9.0071074598e-06 0 
0 8.9989795773e-06 0 0 8.9967960223e-06 0 0 9.0017737589e-06 0 
0 9.0152649452e-06 0 0 9.038621739e-06 0 0 9.0731503599e-06 0 
0 9.1201570273e-06 0 0 9.1793167399e-06 0 0 9.2503044959e-06 0 

displacement_x 1 1089 double
6.9377296662e-06 7.411839525e-06 7.8189092318e-06 8.1596355371e-06 8.4347151914e-06 8.6523159027e-06 8.8206053787e-06 8.9471219069e-06 9.0394037752e-06 
9.1035119426e-06 9.1455073685e-06 9.1696506587e-06 9.1802024192e-06 9.1800576848e-06 9.1721114901e-06 9.1582971916e-06 9.1405481453e-06 9.1202054841e-06 
9.0986103406e-06 9.0767933868e-06 9.0557852948e-06 9.036527817e-06 9.0199627058e-06 9.0071074598e-06 8.9989795772e-06 8.9967960223e-06 9.0017737589e-06 
9.0152649452e-06 9.038621739e-06 9.0731503599e-06 9.1201570273e-06 9.1793167399e-06 9.2503044959e-06 7.0557652492e-06 7.5379414116e-06 7.9519368293e-06 
8.298460107e-06 8.5782198497e-06 8.7995227269e-06 8.9706754085e-06 9.0993444352e-06 9.1931963479e-06 9.2583952245e-06 9.3011051426e-06 9.3256591965e-06 
9.3363904802e-06 9.3362432833e-06 9.3281618955e-06 9.3141125663e-06 9.2960615453e-06 9.2753727827e-06 9.2534102286e-06 9.2312220905e-06 9.2098565757e-06 
9.1902714593e-06 9.1734245164e-06 9.1603505567e-06 9.1520843898e-06 9.1498636848e-06 9.1549261105e-06 9.1686468301e-06 9.1924010065e-06 9.2275170826e-06 
9.2753235015e-06 9.3354897323e-06 9.4076852438e-06 7.1546705615e-06 7.643605705e-06 8.0634043693e-06 8.4147850923e-06 8.6984664116e-06 8.9228714372e-06 
9.0964232787e-06 9.226895944e-06 9.3220634408e-06 9.388176253e-06 9.4314848642e-06 9.4563831085e-06 9.4672648196e-06 9.4671155594e-06 9.4589208894e-06 
9.4446746215e-06 9.4263705675e-06 9.4053917968e-06 9.3831213792e-06 9.3606222153e-06 9.338957206e-06 9.3190975522e-06 9.3020144546e-06 9.2887572285e-06 
9.2803751893e-06 9.2781233552e-06 9.2832567443e-06 9.2971697962e-06 9.3212569505e-06 9.3568652719e-06 9.4053418249e-06 9.4663514453e-06 9.539558969e-06 
7.2326206828e-06 7.7268827737e-06 8.1512551436e-06 8.5064641589e-06 8.7932361857e-06 9.0200861035e-06 9.195528792e-06 9.3274229567e-06 9.4236273032e-06 
9.4904604143e-06 9.5342408728e-06 9.5594103834e-06 9.5704106507e-06 9.5702597643e-06 9.5619758135e-06 9.5475743325e-06 9.5290708558e-06 9.5078635215e-06 
9.4853504677e-06 9.4626061754e-06 9.4407051259e-06 9.4206291012e-06 9.4033598833e-06 9.3899582198e-06 9.3814848583e-06 9.3792084904e-06 9.3843978078e-06 
9.3984624424e-06 9.4228120262e-06 9.4588083002e-06 9.5078130051e-06 9.5694873252e-06 9.6434924447e-06 7.2876781985e-06 7.7857028043e-06 8.2133056614e-06 
8.5712186655e-06 8.8601737122e-06 9.0887504997e-06 9.265528726e-06 9.3984269203e-06 9.4953636116e-06 9.5627054823e-06 9.6068192147e-06 9.6321803253e-06 
9.643264331e-06 9.643112296e-06 9.6347652844e-06 9.6202541738e-06 9.6016098415e-06 9.5802410687e-06 9.5575566368e-06 9.5346392062e-06 9.5125714374e-06 
9.4923425862e-06 9.4749419083e-06 9.4614382261e-06 9.4529003621e-06 9.4506066656e-06 9.4558354861e-06 9.4700071861e-06 9.4945421284e-06 9.53081242e-06 
9.5801901678e-06 9.6423339768e-06 9.7169024519e-06 7.3179546913e-06 7.818048329e-06 8.2474276524e-06 8.6068275979e-06 8.8969831018e-06 9.1265095063e-06 
9.3040221537e-06 9.4374724705e-06 9.5348118831e-06 9.6024335241e-06 9.6467305259e-06 9.6721969987e-06 9.6833270527e-06 9.683174386e-06 9.674792697e-06 
9.6602213003e-06 9.6414995105e-06 9.6200419617e-06 9.5972632878e-06 9.5742506472e-06 9.5520911984e-06 9.5317783069e-06 9.5143053383e-06 9.5007455554e-06 
9.492172221e-06 9.4898689954e-06 9.4951195389e-06 9.509350115e-06 9.5339869871e-06 9.5704079628e-06 9.6199908493e-06 9.6823928333e-06 9.7572711015e-06 
7.3217944408e-06 7.8221504788e-06 8.2517550987e-06 8.6113436223e-06 8.9016513715e-06 9.1312982091e-06 9.3089039978e-06 9.4424243363e-06 9.5398148232e-06 
9.6074719454e-06 9.65179219e-06 9.6772720251e-06 9.688407919e-06 9.6882551723e-06 9.6798690854e-06 9.665290043e-06 9.6465584299e-06 9.6250896222e-06 
9.6022989963e-06 9.5792742809e-06 9.557103205e-06 9.5367796552e-06 9.5192975185e-06 9.5057306207e-06 9.4971527879e-06 9.4948483539e-06 9.5001016523e-06 
9.5143396952e-06 9.5389894944e-06 9.5754295802e-06 9.625038483e-06 9.6874732095e-06 9.7623907665e-06 7.2977327166e-06 7.796444427e-06 8.2246372307e-06 
8.5830440331e-06 8.8723977396e-06 9.1012898853e-06 9.2783120054e-06 9.411393554e-06 9.508463985e-06 9.5758987647e-06 9.6200733589e-06 9.6454694593e-06 
9.6565687571e-06 9.6564165123e-06 9.6480579848e-06 9.6335268537e-06 9.6148567986e-06 9.5934585442e-06 9.5707428154e-06 9.5477937665e-06 9.5256955517e-06 
9.5054387916e-06 9.4880141067e-06 9.474491794e-06 9.4659421507e-06 9.4636452897e-06 9.4688813241e-06 9.4830725763e-06 9.5076413685e-06 9.5439617007e-06 
9.593407573e-06 9.6556371193e-06 9.7303084736e-06 7.2446125318e-06 7.7396941204e-06 8.1647701094e-06 8.5205680692e-06 8.8078155705e-06 9.0350416106e-06 
9.210775187e-06 9.3428880352e-06 9.4392518908e-06 9.5061958127e-06 9.5500488602e-06 9.5752601024e-06 9.5862786084e-06 9.5861274719e-06 9.577829786e-06 
9.563404427e-06 9.5448702712e-06 9.5236277746e-06 9.5010773936e-06 9.4782953909e-06 9.4563580289e-06 9.4362487177e-06 9.418950867e-06 9.4055269833e-06 
9.3970395727e-06 9.3947594306e-06 9.399957352e-06 9.4140453061e-06 9.438435262e-06 9.4744912186e-06 9.5235771745e-06 9.585353752e-06 9.6594815737e-06 
7.1615405941e-06 7.6509452212e-06 8.0711469831e-06 8.4228651076e-06 8.7068188225e-06 8.9314393255e-06 9.1051578143e-06 9.2357557616e-06 9.3310146398e-06 
9.3971909346e-06 9.4405411315e-06 9.4654632834e-06 9.4763554434e-06 9.4762060398e-06 9.4680035012e-06 9.4537435538e-06 9.4354219239e-06 9.4144230091e-06 
9.392131207e-06 9.369610439e-06 9.3479246267e-06 9.3280459033e-06 9.3109464022e-06 9.2976764463e-06 9.2892863586e-06 9.2870323622e-06 9.2921706805e-06 
9.3060970919e-06 9.3302073751e-06 9.3658498882e-06 9.4143729892e-06 9.4754411921e-06 9.5487190108e-06 7.0480194827e-06 7.5296663157e-06 7.9432072523e-06 
8.2893501194e-06 8.5688027439e-06 8.7898626765e-06 8.9608274679e-06 9.0893552427e-06 9.1831041255e-06 9.2482314273e-06 9.2908944588e-06 9.3154215574e-06 
9.3261410604e-06 9.3259940251e-06 9.317921509e-06 9.303887603e-06 9.2858563983e-06 9.2651903476e-06 9.2432519039e-06 9.2210881237e-06 9.1997460639e-06 
9.1801824479e-06 9.1633539995e-06 9.1502943922e-06 9.1420372999e-06 9.1398190327e-06 9.1448759009e-06 9.158581558e-06 9.1823096572e-06 9.2173871832e-06 
9.2651411206e-06 9.3252413013e-06 9.3973575572e-06 6.9038777231e-06 7.3756742113e-06 7.780757663e-06 8.1198214291e-06 8.3935588604e-06 8.6100978112e-06 
8.7775661359e-06 8.9034653397e-06 8.995296928e-06 9.0590922862e-06 9.1008827996e-06 9.1249082851e-06 9.1354085594e-06 9.1352645312e-06 9.1273571092e-06 
9.113610216e-06 9.0959477744e-06 9.0757043731e-06 9.0542146009e-06 9.0325041008e-06 9.0115985156e-06 8.9924350027e-06 8.9759507193e-06 8.9631581991e-06 
8.9550699758e-06 8.9528970752e-06 8.9578505235e-06 8.9712758809e-06 8.9945187076e-06 9.0288788496e-06 9.0756561529e-06 9.1345272016e-06 9.2051685802e-06 
6.729397631e-06 7.1892705166e-06 7.5841163887e-06 7.9146110752e-06 8.1814304043e-06 8.3924968167e-06 8.5557327534e-06 8.678450136e-06 8.7679608859e-06 
8.8301439589e-06 8.8708783105e-06 8.8942966055e-06 8.9045315088e-06 8.9043911206e-06 8.896683541e-06 8.8832840699e-06 8.866068007e-06 8.8463362125e-06 
8.8253895463e-06 8.8042277306e-06 8.7838504874e-06 8.7651712894e-06 8.7491036095e-06 8.7366343917e-06 8.7287505801e-06 8.7266325948e-06 8.7314608557e-06 
8.7445469172e-06 8.7672023334e-06 8.8006940995e-06 8.8462892109e-06 8.9036724254e-06 8.9725285008e-06 6.5252196215e-06 6.9711394112e-06 7.3540051851e-06 
7.6744722658e-06 7.9331959758e-06 8.1378583796e-06 8.2961415419e-06 8.4151355317e-06 8.5019304179e-06 8.5622267818e-06 8.6017252041e-06 8.6244329599e-06 
8.634357324e-06 8.6342211953e-06 8.626747473e-06 8.6137545579e-06 8.5970608511e-06 8.5779277429e-06 8.5576166237e-06 8.5370968829e-06 8.5173379098e-06 
8.4992254611e-06 8.4836452939e-06 8.4715544072e-06 8.4639097999e-06 8.4618560768e-06 8.4665378425e-06 8.4792268571e-06 8.5011948808e-06 8.5336704665e-06 
8.5778821674e-06 8.6335243062e-06 8.7002912056e-06 6.2924523088e-06 6.7224652698e-06 7.0916734747e-06 7.4007088694e-06 7.6502034e-06 7.8475650967e-06 
8.0002019898e-06 8.1149512318e-06 8.1986499752e-06 8.2567954501e-06 8.2948848867e-06 8.3167826125e-06 8.3263529551e-06 8.3262216825e-06 8.3190145624e-06 
8.3064851299e-06 8.2903869202e-06 8.2719363273e-06 8.2523497454e-06 8.2325619837e-06 8.2135078517e-06 8.1960415095e-06 8.1810171172e-06 8.169357536e-06 
8.1619856268e-06 8.160005164e-06 8.164519922e-06 8.1767562947e-06 8.1979406761e-06 8.2292577943e-06 8.2718923776e-06 8.3255496527e-06 8.3899348466e-06 
6.0325556428e-06 6.444807812e-06 6.7987666392e-06 7.0950379692e-06 7.3342276467e-06 7.5234377287e-06 7.6697702721e-06 7.7797800351e-06 7.8600217758e-06 
7.9157656728e-06 7.9522819043e-06 7.9732751901e-06 7.9824502496e-06 7.9823243989e-06 7.9754149539e-06 7.9634030236e-06 7.947969717e-06 7.9302811875e-06 
7.9115035886e-06 7.8925331194e-06 7.8742659787e-06 7.8575210474e-06 7.8431172064e-06 7.8319392e-06 7.8248717721e-06 7.8229731082e-06 7.8273013935e-06 
7.8390323683e-06 7.8593417728e-06 7.8893654026e-06 7.930239053e-06 7.9816801259e-06 8.0434060232e-06 5.7474217813e-06 6.1401885019e-06 6.4774171649e-06 
6.7596849791e-06 6.9875691535e-06 7.1678360603e-06 7.3072520719e-06 7.4120621302e-06 7.4885111769e-06 7.5416202912e-06 7.5764105521e-06 7.5964115724e-06 
7.605152965e-06 7.6050330627e-06 7.5984501985e-06 7.5870060223e-06 7.572302184e-06 7.5554497179e-06 7.5375596582e-06 7.5194858442e-06 7.5020821154e-06 
7.4861286475e-06 7.4724056163e-06 7.4617559478e-06 7.455022568e-06 7.453213646e-06 7.4573373512e-06 7.4685138515e-06 7.4878633148e-06 7.5164678522e-06 
7.5554095749e-06 7.6044192418e-06 7.6632276122e-06 5.4392462524e-06 5.8109529053e-06 6.1300994393e-06 6.3972321135e-06 6.6128971872e-06 6.783498221e-06 
6.9154387758e-06 7.0146289411e-06 7.0869788063e-06 7.1372402212e-06 7.1701650357e-06 7.1890936056e-06 7.1973662865e-06 7.1972528134e-06 7.191022921e-06 
7.1801923791e-06 7.1662769574e-06 7.1503281169e-06 7.1333973184e-06 7.1162926185e-06 7.0998220739e-06 7.0847240276e-06 7.0717368224e-06 7.0616581868e-06 
7.0552858494e-06 7.0535739214e-06 7.0574765145e-06 7.0680537332e-06 7.0863656824e-06 7.1134364506e-06 7.1502901264e-06 7.1966719055e-06 7.2523269835e-06 
5.1105724317e-06 5.4598182067e-06 5.7596798792e-06 6.0106706999e-06 6.2133039193e-06 6.3735961546e-06 6.4975640228e-06 6.590760488e-06 6.6587385146e-06 
6.7059628155e-06 6.7368981035e-06 6.7546828889e-06 6.7624556819e-06 6.7623490655e-06 6.7564956228e-06 6.746319531e-06 6.7332449676e-06 6.7182598574e-06 
6.7023521253e-06 6.686281e-06 6.6708057104e-06 6.656619984e-06 6.6444175482e-06 6.6349479279e-06 6.6289606475e-06 6.6273521652e-06 6.6310189387e-06 
6.6409570147e-06 6.6581624396e-06 6.68359742e-06 6.7182241625e-06 6.7618032598e-06 6.8140953044e-06 4.764163388e-06 5.0897362973e-06 5.3692724981e-06 
5.6032504516e-06 5.7921486187e-06 5.9415757933e-06 6.0571407689e-06 6.1440201143e-06 6.2073903981e-06 6.2514137024e-06 6.2802521092e-06 6.2968313916e-06 
6.3040773227e-06 6.3039779331e-06 6.2985212532e-06 6.2890349258e-06 6.2768465932e-06 6.2628772161e-06 6.248047755e-06 6.2330659761e-06 6.2186396453e-06 
6.2054154675e-06 6.1940401474e-06 6.1852124046e-06 6.1796309591e-06 6.1781315042e-06 6.1815497335e-06 6.1908141786e-06 6.2068533711e-06 6.2305642967e-06 
6.2628439407e-06 6.3034691236e-06 6.3522166656e-06 4.403008492e-06 4.7039008351e-06 4.9622463547e-06 5.1784872415e-06 5.3530656861e-06 5.4911652988e-06 
5.5979696898e-06 5.6782630098e-06 5.7368294096e-06 5.7775154581e-06 5.8041677242e-06 5.819490188e-06 5.8261868299e-06 5.8260949746e-06 5.821051947e-06 
5.8122847455e-06 5.8010203686e-06 5.7881099621e-06 5.7744046717e-06 5.76055861e-06 5.7472258899e-06 5.7350041917e-06 5.7244911956e-06 5.7163326538e-06 
5.7111743185e-06 5.7097885321e-06 5.7129476372e-06 5.7215097765e-06 5.7363330928e-06 5.7582465743e-06 5.7880792092e-06 5.8256247362e-06 5.8706768942e-06 
4.0302097964e-06 4.3056258604e-06 4.5420975016e-06 4.7400294706e-06 4.8998265182e-06 5.0262333632e-06 5.1239947242e-06 5.1974896824e-06 5.2510973188e-06 
5.2883385168e-06 5.3127341599e-06 5.3267592848e-06 5.3328889281e-06 5.3328048502e-06 5.3281888111e-06 5.3201639205e-06 5.3098532881e-06 5.2980359939e-06 
5.2854911178e-06 5.2728173895e-06 5.2606135386e-06 5.2494266404e-06 5.2398037701e-06 5.2323360045e-06 5.2276144207e-06 5.2263459676e-06 5.2292375941e-06 
5.2370747849e-06 5.2506430247e-06 5.2707011118e-06 5.2980078448e-06 5.3323744264e-06 5.3736120595e-06 3.648954925e-06 3.8983168327e-06 4.1124184312e-06 
4.2916261821e-06 4.4363065469e-06 4.5507553977e-06 4.6392686061e-06 4.7058109955e-06 4.7543473891e-06 4.7880655973e-06 4.8101534306e-06 4.8228517889e-06 
4.8284015726e-06 4.8283254483e-06 4.8241460831e-06 4.8168803412e-06 4.8075450871e-06 4.7968457002e-06 4.7854875601e-06 4.7740127572e-06 4.7629633816e-06 
4.7528347557e-06 4.7441222017e-06 4.7373608813e-06 4.7330859559e-06 4.7319374975e-06 4.7345555783e-06 4.7416513766e-06 4.7539360708e-06 4.7720966777e-06 
4.796820214e-06 4.8279357424e-06 4.8652723257e-06 3.2624302472e-06 3.4853778711e-06 3.6768002222e-06 3.8370249438e-06 3.9663796791e-06 4.0687052491e-06 
4.1478424745e-06 4.2073361948e-06 4.2507312495e-06 4.2808777722e-06 4.3006258964e-06 4.3119791495e-06 4.3169410584e-06 4.3168729978e-06 4.3131363423e-06 
4.3066402423e-06 4.2982938483e-06 4.2887278207e-06 4.27857282e-06 4.2683135143e-06 4.2584345715e-06 4.2493788456e-06 4.2415891907e-06 4.2355440801e-06 
4.2317219868e-06 4.2306951817e-06 4.2330359358e-06 4.2393800939e-06 4.2503635012e-06 4.2666004004e-06 4.2887050342e-06 4.3165245724e-06 4.3499061848e-06 
2.8737683965e-06 3.0701556867e-06 3.2387733923e-06 3.3799101236e-06 3.4938544909e-06 3.583989748e-06 3.6536991487e-06 3.7061052265e-06 3.7443305148e-06 
3.7708856033e-06 3.7882810819e-06 3.7982817922e-06 3.8026525759e-06 3.8025926235e-06 3.7993011256e-06 3.793578923e-06 3.7862268567e-06 3.777800455e-06 
3.7688552462e-06 3.7598181584e-06 3.7511161198e-06 3.7431392263e-06 3.7362775734e-06 3.7309526325e-06 3.7275858752e-06 3.7266813962e-06 3.72874329e-06 
3.734331652e-06 3.7440065773e-06 3.7583091322e-06 3.7777803831e-06 3.802285707e-06 3.8316904805e-06 2.4859964519e-06 2.6558842227e-06 2.8017494978e-06 
2.923841944e-06 3.0224112279e-06 3.1003840838e-06 3.1606872464e-06 3.20602191e-06 3.239089269e-06 3.2620611466e-06 3.2771093662e-06 3.2857606306e-06 
3.2895416426e-06 3.2894897799e-06 3.2866424203e-06 3.2816923431e-06 3.2753323279e-06 3.2680429427e-06 3.2603047556e-06 3.2524870873e-06 3.2449592583e-06 
3.2380587269e-06 3.2321229512e-06 3.2275165313e-06 3.2246040674e-06 3.2238216342e-06 3.2256053064e-06 3.2304396028e-06 3.2388090419e-06 3.2511816816e-06 
3.2680255792e-06 3.2892242772e-06 3.3146613175e-06 2.1019684109e-06 2.2456125127e-06 2.3689450301e-06 2.472177062e-06 2.5555197075e-06 2.6214475893e-06 
2.6724353301e-06 2.7107668534e-06 2.7387260823e-06 2.7581493446e-06 2.7708729678e-06 2.7781878151e-06 2.7813847496e-06 2.7813408985e-06 2.778933389e-06 
2.7747479825e-06 2.7693704402e-06 2.7632070938e-06 2.7566642748e-06 2.7500542525e-06 2.7436892962e-06 2.7378547348e-06 2.7328358969e-06 2.7289410607e-06 
2.726478504e-06 2.7258169384e-06 2.7273250751e-06 2.7314125863e-06 2.7384891438e-06 2.7489505013e-06 2.7631924125e-06 2.7811164097e-06 2.802624025e-06 
1.7243511537e-06 1.8421896861e-06 1.943365597e-06 2.0280520615e-06 2.096422255e-06 2.1505062357e-06 2.1923340621e-06 2.2237793521e-06 2.2467157238e-06 
2.2626496096e-06 2.2730874422e-06 2.279088182e-06 2.2817107893e-06 2.281674816e-06 2.279699814e-06 2.276266313e-06 2.2718548427e-06 2.2667987375e-06 
2.2614313316e-06 2.2560087956e-06 2.2507872996e-06 2.2460009133e-06 2.2418837064e-06 2.2386885749e-06 2.236668415e-06 2.2361256992e-06 2.2373629001e-06 
2.2407160926e-06 2.2465213511e-06 2.2551033325e-06 2.2667866937e-06 2.2814906564e-06 2.2991344427e-06 1.3555519081e-06 1.4481874754e-06 1.5277241746e-06 
1.5942981427e-06 1.6480455166e-06 1.6905621717e-06 1.7234439834e-06 1.7481638455e-06 1.7661946523e-06 1.7787206446e-06 1.7869260637e-06 1.7916433826e-06 
1.7937050742e-06 1.7936767948e-06 1.7921242005e-06 1.7894250468e-06 1.785957089e-06 1.781982369e-06 1.7777629284e-06 1.7735001487e-06 1.7693954112e-06 
1.7656327234e-06 1.7623960928e-06 1.7598843268e-06 1.7582962328e-06 1.7578695915e-06 1.7588421835e-06 1.7614782048e-06 1.7660418515e-06 1.7727883435e-06 
1.7819729011e-06 1.7935320227e-06 1.8074022069e-06 9.9758087415e-07 1.0657534537e-06 1.1242862841e-06 1.1732795516e-06 1.2128334425e-06 1.2441223969e-06 
1.2683208553e-06 1.2865127531e-06 1.2997820258e-06 1.3090001828e-06 1.3150387337e-06 1.3185103139e-06 1.3200275587e-06 1.3200067472e-06 1.3188641585e-06 
1.3168777911e-06 1.3143256436e-06 1.3114005585e-06 1.3082953781e-06 1.3051583035e-06 1.3021375356e-06 1.2993684898e-06 1.2969865812e-06 1.2951381166e-06 
1.2939694028e-06 1.293655428e-06 1.2943711801e-06 1.296311087e-06 1.2996695763e-06 1.3046344702e-06 1.3113935909e-06 1.3199002063e-06 1.3301075841e-06 
6.5152664039e-07 6.9605060117e-07 7.3427877828e-07 7.6627660403e-07 7.9210951071e-07 8.12544533e-07 8.2834870557e-07 8.4022995384e-07 8.4889620325e-07 
8.5491664235e-07 8.5886045971e-07 8.6112777157e-07 8.6211869417e-07 8.6210510206e-07 8.6135886983e-07 8.6006156019e-07 8.5839473588e-07 8.5648434352e-07 
8.5445632975e-07 8.5240748564e-07 8.5043460225e-07 8.4862612016e-07 8.4707047996e-07 8.4586323556e-07 8.450999409e-07 8.4489488185e-07 8.4536234429e-07 
8.4662931024e-07 8.4882276172e-07 8.5206536664e-07 8.5647979292e-07 8.6203551945e-07 8.6870202513e-07 3.1839438708e-07 3.4015279007e-07 3.5883450815e-07 
3.7447151743e-07 3.8709579398e-07 3.970821798e-07 4.0480551684e-07 4.1061176102e-07 4.1484686823e-07 4.1778899507e-07 4.1971629817e-07 4.2082431022e-07 
4.2130856393e-07 4.2130192161e-07 4.2093724557e-07 4.2030326366e-07 4.1948870371e-07 4.1855511456e-07 4.1756404503e-07 4.1656279592e-07 4.1559866805e-07 
4.147148814e-07 4.1395465598e-07 4.1336468803e-07 4.1299167376e-07 4.128914635e-07 4.131199076e-07 4.1373906087e-07 4.1481097811e-07 4.1639560588e-07 
4.1855289072e-07 4.212679173e-07 4.2452577025e-07 0 0 0 0 0 0 
0 0 0 0 0 0 0 0 0 
0 0 0 0 0 0 0 0 0 
0 0 0 0 0 0 0 0 0 

displacement_y 1 1089 double
0 0 0 0 0 0 0 0 0 
0 0 0 0 0 0 0 0 0 
0 0 0 0 0 0 0 0 0 
0 0 0 0 0 0 3.1839438708e-07 3.4015279007e-07 3.5883450815e-07 
3.7447151743e-07 3.8709579398e-07 3.970821798e-07 4.0480551684e-07 4.1061176102e-07 4.1484686823e-07 4.1778899507e-07 4.1971629817e-07 4.2082431022e-07 
4.2130856393e-07 4.2130192161e-07 4.2093724557e-07 4.2030326366e-07 4.1948870371e-07 4.1855511456e-07 4.1756404503e-07 4.1656279592e-07 4.1559866805e-07 
4.147148814e-07 4.1395465598e-07 4.1336468803e-07 4.1299167376e-07 4.128914635e-07 4.131199076e-07 4.1373906087e-07 4.1481097811e-07 4.1639560588e-07 
4.1855289072e-07 4.212679173e-07 4.2452577025e-07 6.5152664039e-07 6.9605060117e-07 7.3427877828e-07 7.6627660403e-07 7.9210951071e-07 8.12544533e-07 
8.2834870557e-07 8.4022995384e-07 8.4889620325e-07 8.5491664235e-07 8.5886045971e-07 8.6112777157e-07 8.6211869417e-07 8.6210510206e-07 8.6135886983e-07 
8.6006156019e-07 8.5839473588e-07 8.5648434352e-07 8.5445632975e-07 8.5240748564e-07 8.5043460225e-07 8.4862612016e-07 8.4707047996e-07 8.4586323556e-07 
8.450999409e-07 8.4489488185e-07 8.4536234429e-07 8.4662931024e-07 8.4882276172e-07 8.5206536664e-07 8.5647979292e-07 8.6203551945e-07 8.6870202513e-07 
9.9758087415e-07 1.0657534537e-06 1.1242862841e-06 1.1732795516e-06 1.2128334425e-06 1.2441223969e-06 1.2683208553e-06 1.2865127531e-06 1.2997820258e-06 
1.3090001828e-06 1.3150387337e-06 1.3185103139e-06 1.3200275587e-06 1.3200067472e-06 1.3188641585e-06 1.3168777911e-06 1.3143256436e-06 1.3114005585e-06 
1.3082953781e-06 1.3051583035e-06 1.3021375356e-06 1.2993684898e-06 1.2969865812e-06 1.2951381166e-06 1.2939694028e-06 1.293655428e-06 1.2943711801e-06 
1.296311087e-06 1.2996695763e-06 1.3046344702e-06 1.3113935909e-06 1.3199002063e-06 1.3301075841e-06 1.3555519081e-06 1.4481874754e-06 1.5277241746e-06 
1.5942981427e-06 1.6480455166e-06 1.6905621717e-06 1.7234439834e-06 1.7481638455e-06 1.7661946523e-06 1.7787206446e-06 1.7869260637e-06 1.7916433826e-06 
1.7937050742e-06 1.7936767948e-06 1.7921242005e-06 1.7894250468e-06 1.785957089e-06 1.781982369e-06 1.7777629284e-06 1.7735001487e-06 1.7693954112e-06 
1.7656327234e-06 1.7623960928e-06 1.7598843268e-06 1.7582962328e-06 1.7578695915e-06 1.7588421835e-06 1.7614782048e-06 1.7660418515e-06 1.7727883435e-06 
1.7819729011e-06 1.7935320227e-06 1.8074022069e-06 1.7243511537e-06 1.8421896861e-06 1.943365597e-06 2.0280520615e-06 2.096422255e-06 2.1505062357e-06 
2.1923340621e-06 2.2237793521e-06 2.2467157238e-06 2.2626496096e-06 2.2730874422e-06 2.279088182e-06 2.2817107893e-06 2.281674816e-06 2.279699814e-06 
2.276266313e-06 2.2718548427e-06 2.2667987375e-06 2.2614313316e-06 2.2560087956e-06 2.2507872996e-06 2.2460009133e-06 2.2418837064e-06 2.2386885749e-06 
2.236668415e-06 2.2361256992e-06 2.2373629001e-06 2.2407160926e-06 2.2465213511e-06 2.2551033325e-06 2.2667866937e-06 2.2814906564e-06 2.2991344427e-06 
2.1019684109e-06 2.2456125127e-06 2.3689450301e-06 2.472177062e-06 2.5555197075e-06 2.6214475893e-06 2.6724353301e-06 2.7107668534e-06 2.7387260823e-06 
2.7581493446e-06 2.7708729678e-06 2.7781878151e-06 2.7813847496e-06 2.7813408985e-06 2.778933389e-06 2.7747479825e-06 2.7693704402e-06 2.7632070938e-06 
2.7566642748e-06 2.7500542525e-06 2.7436892962e-06 2.7378547348e-06 2.7328358969e-06 2.7289410607e-06 2.726478504e-06 2.7258169384e-06 2.7273250751e-06 
2.7314125863e-06 2.7384891438e-06 2.7489505013e-06 2.7631924125e-06 2.7811164097e-06 2.802624025e-06 2.4859964519e-06 2.6558842227e-06 2.8017494978e-06 
2.923841944e-06 3.0224112279e-06 3.1003840838e-06 3.1606872464e-06 3.20602191e-06 3.239089269e-06 3.2620611466e-06 3.2771093662e-06 3.2857606306e-06 
3.2895416426e-06 3.2894897799e-06 3.2866424203e-06 3.2816923431e-06 3.2753323279e-06 3.2680429427e-06 3.2603047556e-06 3.2524870873e-06 3.2449592583e-06 
3.2380587269e-06 3.2321229512e-06 3.2275165313e-06 3.2246040674e-06 3.2238216342e-06 3.2256053064e-06 3.2304396028e-06 3.2388090419e-06 3.2511816816e-06 
3.2680255792e-06 3.2892242772e-06 3.3146613175e-06 2.8737683965e-06 3.0701556867e-06 3.2387733923e-06 3.3799101236e-06 3.4938544909e-06 3.583989748e-06 
3.6536991487e-06 3.7061052265e-06 3.7443305148e-06 3.7708856033e-06 3.7882810819e-06 3.7982817922e-06 3.8026525759e-06 3.8025926235e-06 3.7993011256e-06 
3.793578923e-06 3.7862268567e-06 3.777800455e-06 3.7688552462e-06 3.7598181584e-06 3.7511161198e-06 3.7431392263e-06 3.7362775734e-06 3.7309526325e-06 
3.7275858752e-06 3.7266813962e-06 3.72874329e-06 3.734331652e-06 3.7440065773e-06 3.7583091322e-06 3.7777803831e-06 3.802285707e-06 3.8316904805e-06 
3.2624302472e-06 3.4853778711e-06 3.6768002222e-06 3.8370249438e-06 3.9663796791e-06 4.0687052491e-06 4.1478424745e-06 4.2073361949e-06 4.2507312495e-06 
4.2808777722e-06 4.3006258964e-06 4.3119791495e-06 4.3169410584e-06 4.3168729978e-06 4.3131363423e-06 4.3066402423e-06 4.2982938483e-06 4.2887278207e-06 
4.27857282e-06 4.2683135143e-06 4.2584345715e-06 4.2493788456e-06 4.2415891907e-06 4.2355440801e-06 4.2317219868e-06 4.2306951817e-06 4.2330359358e-06 
4.2393800939e-06 4.2503635012e-06 4.2666004004e-06 4.2887050342e-06 4.3165245724e-06 4.3499061848e-06 3.648954925e-06 3.8983168327e-06 4.1124184312e-06 
4.2916261821e-06 4.4363065469e-06 4.5507553977e-06 4.6392686061e-06 4.7058109955e-06 4.7543473891e-06 4.7880655973e-06 4.8101534306e-06 4.8228517889e-06 
4.8284015726e-06 4.8283254483e-06 4.8241460831e-06 4.8168803412e-06 4.8075450871e-06 4.7968457002e-06 4.7854875601e-06 4.7740127572e-06 4.7629633816e-06 
4.7528347557e-06 4.7441222017e-06 4.7373608813e-06 4.7330859559e-06 4.7319374975e-06 4.7345555783e-06 4.7416513766e-06 4.7539360708e-06 4.7720966777e-06 
4.796820214e-06 4.8279357424e-06 4.8652723257e-06 4.0302097964e-06 4.3056258604e-06 4.5420975016e-06 4.7400294706e-06 4.8998265182e-06 5.0262333632e-06 
5.1239947242e-06 5.1974896824e-06 5.2510973188e-06 5.2883385168e-06 5.3127341599e-06 5.3267592848e-06 5.3328889281e-06 5.3328048502e-06 5.3281888111e-06 
5.3201639205e-06 5.3098532881e-06 5.2980359939e-06 5.2854911178e-06 5.2728173895e-06 5.2606135386e-06 5.2494266404e-06 5.2398037701e-06 5.2323360045e-06 
5.2276144207e-06 5.2263459676e-06 5.2292375941e-06 5.2370747849e-06 5.2506430247e-06 5.2707011118e-06 5.2980078448e-06 5.3323744264e-06 5.3736120595e-06 
4.4030084921e-06 4.7039008351e-06 4.9622463547e-06 5.1784872415e-06 5.3530656861e-06 5.4911652988e-06 5.5979696898e-06 5.6782630098e-06 5.7368294096e-06 
5.7775154581e-06 5.8041677242e-06 5.819490188e-06 5.8261868299e-06 5.8260949746e-06 5.821051947e-06 5.8122847455e-06 5.8010203686e-06 5.7881099621e-06 
5.7744046717e-06 5.76055861e-06 5.7472258899e-06 5.7350041917e-06 5.7244911956e-06 5.7163326538e-06 5.7111743185e-06 5.7097885321e-06 5.7129476372e-06 
5.7215097765e-06 5.7363330928e-06 5.7582465743e-06 5.7880792092e-06 5.8256247362e-06 5.8706768942e-06 4.764163388e-06 5.0897362973e-06 5.3692724981e-06 
5.6032504516e-06 5.7921486187e-06 5.9415757933e-06 6.0571407689e-06 6.1440201143e-06 6.2073903981e-06 6.2514137024e-06 6.2802521092e-06 6.2968313916e-06 
6.3040773227e-06 6.3039779331e-06 6.2985212532e-06 6.2890349258e-06 6.2768465932e-06 6.2628772161e-06 6.248047755e-06 6.2330659761e-06 6.2186396453e-06 
6.2054154675e-06 6.1940401474e-06 6.1852124046e-06 6.1796309591e-06 6.1781315042e-06 6.1815497335e-06 6.1908141786e-06 6.2068533711e-06 6.2305642967e-06 
6.2628439407e-06 6.3034691236e-06 6.3522166656e-06 5.1105724317e-06 5.4598182067e-06 5.7596798792e-06 6.0106706999e-06 6.2133039193e-06 6.3735961546e-06 
6.4975640228e-06 6.590760488e-06 6.6587385146e-06 6.7059628155e-06 6.7368981035e-06 6.7546828889e-06 6.7624556819e-06 6.7623490655e-06 6.7564956228e-06 
6.746319531e-06 6.7332449676e-06 6.7182598574e-06 6.7023521253e-06 6.686281e-06 6.6708057104e-06 6.656619984e-06 6.6444175482e-06 6.6349479279e-06 
6.6289606475e-06 6.6273521652e-06 6.6310189387e-06 6.6409570147e-06 6.6581624396e-06 6.68359742e-06 6.7182241625e-06 6.7618032598e-06 6.8140953044e-06 
5.4392462524e-06 5.8109529053e-06 6.1300994393e-06 6.3972321136e-06 6.6128971872e-06 6.783498221e-06 6.9154387758e-06 7.0146289411e-06 7.0869788063e-06 
7.1372402212e-06 7.1701650357e-06 7.1890936056e-06 7.1973662865e-06 7.1972528134e-06 7.191022921e-06 7.1801923791e-06 7.1662769574e-06 7.1503281169e-06 
7.1333973184e-06 7.1162926185e-06 7.0998220739e-06 7.0847240276e-06 7.0717368224e-06 7.0616581868e-06 7.0552858494e-06 7.0535739214e-06 7.0574765145e-06 
7.0680537332e-06 7.0863656824e-06 7.1134364506e-06 7.1502901264e-06 7.1966719055e-06 7.2523269836e-06 5.7474217813e-06 6.1401885019e-06 6.4774171649e-06 
6.7596849791e-06 6.9875691535e-06 7.1678360603e-06 7.3072520719e-06 7.4120621302e-06 7.4885111769e-06 7.5416202912e-06 7.5764105521e-06 7.5964115725e-06 
7.605152965e-06 7.6050330627e-06 7.5984501985e-06 7.5870060223e-06 7.572302184e-06 7.5554497179e-06 7.5375596582e-06 7.5194858442e-06 7.5020821154e-06 
7.4861286475e-06 7.4724056163e-06 7.4617559478e-06 7.455022568e-06 7.453213646e-06 7.4573373512e-06 7.4685138515e-06 7.4878633148e-06 7.5164678523e-06 
7.5554095749e-06 7.6044192418e-06 7.6632276122e-06 6.0325556428e-06 6.444807812e-06 6.7987666392e-06 7.0950379692e-06 7.3342276467e-06 7.5234377287e-06 
7.6697702721e-06 7.7797800351e-06 7.8600217758e-06 7.9157656728e-06 7.9522819043e-06 7.9732751901e-06 7.9824502496e-06 7.9823243989e-06 7.9754149539e-06 
7.9634030236e-06 7.947969717e-06 7.9302811875e-06 7.9115035887e-06 7.8925331194e-06 7.8742659787e-06 7.8575210474e-06 7.8431172064e-06 7.8319392e-06 
7.8248717721e-06 7.8229731082e-06 7.8273013935e-06 7.8390323683e-06 7.8593417728e-06 7.8893654026e-06 7.930239053e-06 7.9816801259e-06 8.0434060232e-06 
6.2924523088e-06 6.7224652698e-06 7.0916734747e-06 7.4007088694e-06 7.6502034e-06 7.8475650967e-06 8.0002019898e-06 8.1149512318e-06 8.1986499752e-06 
8.2567954501e-06 8.2948848867e-06 8.3167826125e-06 8.3263529552e-06 8.3262216825e-06 8.3190145624e-06 8.3064851299e-06 8.2903869202e-06 8.2719363273e-06 
8.2523497454e-06 8.2325619837e-06 8.2135078517e-06 8.1960415095e-06 8.1810171172e-06 8.169357536e-06 8.1619856268e-06 8.160005164e-06 8.164519922e-06 
8.1767562947e-06 8.1979406761e-06 8.2292577943e-06 8.2718923776e-06 8.3255496527e-06 8.3899348466e-06 6.5252196215e-06 6.9711394112e-06 7.3540051851e-06 
7.6744722658e-06 7.9331959758e-06 8.1378583796e-06 8.2961415419e-06 8.4151355317e-06 8.5019304179e-06 8.5622267818e-06 8.6017252042e-06 8.6244329599e-06 
8.634357324e-06 8.6342211953e-06 8.626747473e-06 8.6137545579e-06 8.5970608511e-06 8.5779277429e-06 8.5576166238e-06 8.5370968829e-06 8.5173379098e-06 
8.4992254611e-06 8.4836452939e-06 8.4715544072e-06 8.4639097999e-06 8.4618560768e-06 8.4665378425e-06 8.4792268571e-06 8.5011948808e-06 8.5336704665e-06 
8.5778821674e-06 8.6335243062e-06 8.7002912056e-06 6.729397631e-06 7.1892705166e-06 7.5841163887e-06 7.9146110752e-06 8.1814304043e-06 8.3924968167e-06 
8.5557327534e-06 8.678450136e-06 8.7679608859e-06 8.8301439589e-06 8.8708783105e-06 8.8942966055e-06 8.9045315088e-06 8.9043911206e-06 8.896683541e-06 
8.8832840699e-06 8.866068007e-06 8.8463362125e-06 8.8253895463e-06 8.8042277306e-06 8.7838504874e-06 8.7651712894e-06 8.7491036095e-06 8.7366343917e-06 
8.7287505801e-06 8.7266325948e-06 8.7314608557e-06 8.7445469172e-06 8.7672023334e-06 8.8006940995e-06 8.8462892109e-06 8.9036724254e-06 8.9725285008e-06 
6.9038777231e-06 7.3756742113e-06 7.780757663e-06 8.1198214291e-06 8.3935588604e-06 8.6100978112e-06 8.7775661359e-06 8.9034653397e-06 8.995296928e-06 
9.0590922862e-06 9.1008827996e-06 9.1249082851e-06 9.1354085594e-06 9.1352645312e-06 9.1273571092e-06 9.113610216e-06 9.0959477744e-06 9.0757043732e-06 
9.054214601e-06 9.0325041008e-06 9.0115985156e-06 8.9924350027e-06 8.9759507193e-06 8.9631581991e-06 8.9550699758e-06 8.9528970752e-06 8.9578505235e-06 
8.9712758809e-06 8.9945187076e-06 9.0288788496e-06 9.0756561529e-06 9.1345272016e-06 9.2051685802e-06 7.0480194827e-06 7.5296663157e-06 7.9432072523e-06 
8.2893501194e-06 8.5688027439e-06 8.7898626765e-06 8.9608274679e-06 9.0893552427e-06 9.1831041255e-06 9.2482314273e-06 9.2908944588e-06 9.3154215574e-06 
9.3261410604e-06 9.3259940251e-06 9.317921509e-06 9.303887603e-06 9.2858563983e-06 9.2651903477e-06 9.2432519039e-06 9.2210881237e-06 9.1997460639e-06 
9.1801824479e-06 9.1633539995e-06 9.1502943922e-06 9.1420372999e-06 9.1398190327e-06 9.144875901e-06 9.158581558e-06 9.1823096572e-06 9.2173871832e-06 
9.2651411206e-06 9.3252413013e-06 9.3973575572e-06 7.1615405941e-06 7.6509452212e-06 8.0711469831e-06 8.4228651076e-06 8.7068188225e-06 8.9314393255e-06 
9.1051578143e-06 9.2357557616e-06 9.3310146398e-06 9.3971909346e-06 9.4405411315e-06 9.4654632834e-06 9.4763554434e-06 9.4762060398e-06 9.4680035012e-06 
9.4537435538e-06 9.4354219239e-06 9.4144230091e-06 9.392131207e-06 9.369610439e-06 9.3479246267e-06 9.3280459033e-06 9.3109464022e-06 9.2976764463e-06 
9.2892863586e-06 9.2870323622e-06 9.2921706805e-06 9.3060970919e-06 9.3302073751e-06 9.3658498882e-06 9.4143729892e-06 9.4754411921e-06 9.5487190108e-06 
7.2446125318e-06 7.7396941204e-06 8.1647701094e-06 8.5205680692e-06 8.8078155705e-06 9.0350416106e-06 9.2107751871e-06 9.3428880353e-06 9.4392518908e-06 
9.5061958127e-06 9.5500488602e-06 9.5752601024e-06 9.5862786084e-06 9.5861274719e-06 9.577829786e-06 9.5634044271e-06 9.5448702712e-06 9.5236277746e-06 
9.5010773936e-06 9.4782953909e-06 9.4563580289e-06 9.4362487177e-06 9.418950867e-06 9.4055269833e-06 9.3970395728e-06 9.3947594306e-06 9.399957352e-06 
9.4140453061e-06 9.4384352621e-06 9.4744912186e-06 9.5235771745e-06 9.585353752e-06 9.6594815737e-06 7.2977327166e-06 7.796444427e-06 8.2246372307e-06 
8.5830440331e-06 8.8723977396e-06 9.1012898853e-06 9.2783120054e-06 9.411393554e-06 9.5084639851e-06 9.5758987647e-06 9.6200733589e-06 9.6454694593e-06 
9.6565687571e-06 9.6564165123e-06 9.6480579848e-06 9.6335268538e-06 9.6148567986e-06 9.5934585442e-06 9.5707428154e-06 9.5477937666e-06 9.5256955517e-06 
9.5054387916e-06 9.4880141067e-06 9.474491794e-06 9.4659421507e-06 9.4636452897e-06 9.4688813241e-06 9.4830725763e-06 9.5076413685e-06 9.5439617007e-06 
9.593407573e-06 9.6556371193e-06 9.7303084736e-06 7.3217944408e-06 7.8221504788e-06 8.2517550987e-06 8.6113436223e-06 8.9016513715e-06 9.1312982091e-06 
9.3089039979e-06 9.4424243363e-06 9.5398148232e-06 9.6074719455e-06 9.65179219e-06 9.6772720251e-06 9.688407919e-06 9.6882551723e-06 9.6798690854e-06 
9.665290043e-06 9.6465584299e-06 9.6250896222e-06 9.6022989963e-06 9.5792742809e-06 9.557103205e-06 9.5367796552e-06 9.5192975185e-06 9.5057306208e-06 
9.4971527879e-06 9.4948483539e-06 9.5001016523e-06 9.5143396952e-06 9.5389894944e-06 9.5754295802e-06 9.625038483e-06 9.6874732095e-06 9.7623907665e-06 
7.3179546913e-06 7.818048329e-06 8.2474276524e-06 8.6068275979e-06 8.8969831018e-06 9.1265095063e-06 9.3040221537e-06 9.4374724705e-06 9.5348118832e-06 
9.6024335241e-06 9.6467305259e-06 9.6721969987e-06 9.6833270527e-06 9.683174386e-06 9.674792697e-06 9.6602213003e-06 9.6414995105e-06 9.6200419617e-06 
9.5972632878e-06 9.5742506472e-06 9.5520911984e-06 9.5317783069e-06 9.5143053383e-06 9.5007455554e-06 9.492172221e-06 9.4898689954e-06 9.4951195389e-06 
9.509350115e-06 9.5339869871e-06 9.5704079628e-06 9.6199908493e-06 9.6823928333e-06 9.7572711015e-06 7.2876781985e-06 7.7857028043e-06 8.2133056614e-06 
8.5712186655e-06 8.8601737123e-06 9.0887504997e-06 9.265528726e-06 9.3984269203e-06 9.4953636116e-06 9.5627054824e-06 9.6068192147e-06 9.6321803253e-06 
9.643264331e-06 9.643112296e-06 9.6347652844e-06 9.6202541738e-06 9.6016098415e-06 9.5802410687e-06 9.5575566368e-06 9.5346392062e-06 9.5125714374e-06 
9.4923425862e-06 9.4749419083e-06 9.4614382261e-06 9.4529003621e-06 9.4506066656e-06 9.4558354861e-06 9.4700071861e-06 9.4945421285e-06 9.53081242e-06 
9.5801901678e-06 9.6423339768e-06 9.7169024519e-06 7.2326206828e-06 7.7268827737e-06 8.1512551436e-06 8.5064641589e-06 8.7932361857e-06 9.0200861035e-06 
9.195528792e-06 9.3274229567e-06 9.4236273032e-06 9.4904604143e-06 9.5342408728e-06 9.5594103834e-06 9.5704106508e-06 9.5702597643e-06 9.5619758135e-06 
9.5475743325e-06 9.5290708558e-06 9.5078635215e-06 9.4853504677e-06 9.4626061754e-06 9.4407051259e-06 9.4206291012e-06 9.4033598833e-06 9.3899582198e-06 
9.3814848583e-06 9.3792084904e-06 9.3843978078e-06 9.3984624424e-06 9.4228120262e-06 9.4588083002e-06 9.5078130051e-06 9.5694873253e-06 9.6434924447e-06 
7.1546705615e-06 7.643605705e-06 8.0634043693e-06 8.4147850923e-06 8.6984664116e-06 8.9228714372e-06 9.0964232787e-06 9.226895944e-06 9.3220634408e-06 
9.388176253e-06 9.4314848642e-06 9.4563831085e-06 9.4672648196e-06 9.4671155594e-06 9.4589208894e-06 9.4446746215e-06 9.4263705675e-06 9.4053917969e-06 
9.3831213792e-06 9.3606222153e-06 9.338957206e-06 9.3190975522e-06 9.3020144546e-06 9.2887572285e-06 9.2803751893e-06 9.2781233552e-06 9.2832567443e-06 
9.2971697962e-06 9.3212569506e-06 9.3568652719e-06 9.4053418249e-06 9.4663514453e-06 9.539558969e-06 7.0557652492e-06 7.5379414116e-06 7.9519368293e-06 
8.298460107e-06 8.5782198497e-06 8.7995227269e-06 8.9706754085e-06 9.0993444352e-06 9.1931963479e-06 9.2583952245e-06 9.3011051426e-06 9.3256591965e-06 
9.3363904802e-06 9.3362432833e-06 9.3281618955e-06 9.3141125663e-06 9.2960615453e-06 9.2753727827e-06 9.2534102286e-06 9.2312220905e-06 9.2098565757e-06 
9.1902714593e-06 9.1734245165e-06 9.1603505567e-06 9.1520843898e-06 9.1498636848e-06 9.1549261105e-06 9.1686468301e-06 9.1924010065e-06 9.2275170826e-06 
9.2753235015e-06 9.3354897323e-06 9.4076852438e-06 6.9377296662e-06 7.411839525e-06 7.8189092318e-06 8.1596355371e-06 8.4347151914e-06 8.6523159027e-06 
8.8206053787e-06 8.9471219069e-06 9.0394037752e-06 9.1035119427e-06 9.1455073685e-06 9.1696506587e-06 9.1802024192e-06 9.1800576848e-06 9.1721114902e-06 
9.1582971916e-06 9.1405481453e-06 9.1202054841e-06 9.0986103406e-06 9.0767933868e-06 9.0557852948e-06 9.036527817e-06 9.0199627058e-06 9.0071074598e-06 
8.9989795773e-06 8.9967960223e-06 9.0017737589e-06 9.0152649452e-06 9.038621739e-06 9.0731503599e-06 9.1201570273e-06 9.1793167399e-06 9.2503044959e-06 

s_xx 1 1089 double
2487827.2301 -3272063.0375 -4243934.9632 -3548789.5746 -4307627.899 -5467253.6609 -5974470.5845 -6149411.1904 -6312207.9992 
-6389310.6533 -6307168.7951 -6115328.1275 -5863334.3533 -5557942.5021 -5205907.6038 -4820644.8078 -4415569.2638 -3997402.5974 
-3572866.4344 -3146843.6197 -2724216.9981 -2311068.085 -1913478.3957 -1530254.4552 -1160202.7886 -829734.17968 -565259.41226 
-313772.34154 -22266.822724 72097.350628 -267839.61505 -321994.04863 629717.72103 2086956.8931 -3704034.9314 -4620994.3793 
-3843740.1343 -4552090.8796 -5675806.1741 -6144645.5762 -6283505.7005 -6417283.1612 -6470208.9155 -6366513.9208 -6155747.2646 
-5887458.0345 -5567905.771 -5203350.0145 -4807034.3118 -4392202.2097 -3965458.3503 -3533407.3757 -3100912.9847 -2672838.8762 
-2255367.3694 -1854680.7835 -1469636.6558 -1099092.5235 -770010.81441 -509353.95618 -263252.59476 22162.623956 105978.33052 
-252718.84451 -320430.46963 636341.88667 748077.82457 -4917626.9019 -5626888.2682 -4621773.1747 -5144348.5217 -6112063.568 
-6442367.5725 -6462606.8302 -6500127.6363 -6475112.1654 -6307742.5922 -6045671.1812 -5736550.1969 -5384842.6144 -4995011.4088 
-4579251.5515 -4149758.0138 -3712513.9123 -3273502.3637 -2837339.7237 -2408642.3481 -1993671.0362 -1598686.5873 -1222750.6727 
-864924.96369 -552865.83349 -314229.65536 -94510.778262 160796.44885 208268.48147 -195518.22494 -303186.24508 632641.84633 
-1593434.435 -6966400.6977 -7304621.6016 -5915910.3687 -6108080.2211 -6791386.2471 -6876083.535 -6689477.262 -6558872.6048 
-6398451.0013 -6122393.8893 -5774423.1866 -5398260.8112 -4995182.2804 -4566463.1115 -4122311.7103 -3672936.4829 -3223159.4274 
-2777802.5423 -2340990.6908 -1916848.736 -1511691.7708 -1131834.8881 -776707.60673 -445739.44583 -167431.38493 29715.596419 
200598.07446 400112.62543 383667.20715 -93330.222548 -269165.92796 617873.82663 -4999198.0806 -9901395.1506 -9695164.2062 
-7757608.9841 -7465833.2206 -7728384.5323 -7453810.5359 -6966714.4733 -6591699.5865 -6234878.8925 -5802365.4086 -5331789.808 
-4860782.764 -4385955.7862 -3903920.3845 -3421902.1652 -2947126.7349 -2482681.929 -2031655.5829 -1597421.6825 -1183354.2135 
-795796.56439 -441092.12339 -119212.07474 169872.39737 396657.23261 531638.3707 629840.03405 746286.44507 636653.81465 
56618.353638 -217323.39065 591325.12907 -9521569.0564 -13765898.635 -12833240.674 -10173526.83 -9236688.7587 -8935383.4465 
-8182267.8788 -7296433.4753 -6596971.6555 -5979762.1496 -5340684.6879 -4709008.9196 -4114004.4942 -3546069.5338 -2995602.1605 
-2465799.2958 -1959857.8613 -1478529.9822 -1022567.784 -594321.98237 -196143.29282 165624.22624 484636.51644 760198.31444 
991614.35687 1148212.7823 1199321.7295 1199813.8031 1204561.608 971030.57389 256686.13045 -146765.64024 552381.34387 
-15186170.746 -18580841.372 -16735562.97 -13176479.62 -11429735.405 -10418124.823 -9064442.3725 -7679369.8033 -6573588.8639 
-5630537.316 -4733652.9215 -3901519.1125 -3152719.3214 -2469853.101 -1835520.004 -1247817.5518 -704843.26592 -204397.8077 
255718.16135 674456.15925 1050767.704 1378336.7771 1650847.3597 1866693.4507 2024269.0488 2091567.9944 2036584.128 
1913748.846 1777493.5443 1388646.2284 508034.90357 -57042.239328 500712.99043 -22000314.94 -24351846.207 -21406513.159 
-16769808.377 -14047224.444 -12177849.901 -10100773.288 -8115323.1911 -6520828.195 -5186068.0388 -3979822.4615 -2907644.7601 
-1975088.2319 -1155358.2464 -421660.17293 234086.39329 819961.85715 1341737.181 1805183.3274 2210835.1661 2559227.5672 
2844101.9651 3059199.794 3201816.3932 3269247.1017 3227986.2107 3044528.0116 2772566.7249 2465796.5714 1890011.7403 
811006.4209 51993.69381 436186.63953 -29940185.836 -31058515.091 -26829513.765 -20940748.126 -17079784.446 -14208149.291 
-11287369.229 -8602502.4706 -6438607.2257 -4647643.7323 -3081572.2281 -1730615.5992 -584996.73159 393036.11041 1241234.6624 
1974914.6628 2609391.8496 3154616.7159 3620539.7546 4009554.9546 4324056.3047 4557872.1616 4704830.882 4760945.0302 
4722227.1704 4553513.1773 4219638.9257 3773265.8343 3267055.3218 2473363.9917 1164548.447 179973.03745 359002.11281 
-38960517.579 -38662531.564 -32973558.017 -25665446.628 -20510047.091 -16497355.869 -12617369.424 -9138034.9701 -6327299.7177 
-4018240.0057 -2043932.1725 -377055.14096 1009712.1662 2166579.0945 3143754.9893 3964807.2486 4653303.2704 5223957.2387 
5691483.3376 6060399.9077 6335225.2897 6509903.828 6578379.8669 6535206.3817 6374936.3476 6060598.2175 5555220.4439 
4910141.1094 4176698.2966 3135373.3921 1566647.7827 326170.4301 269590.29613 -48982036.807 -47097163.75 -39784754.727 
-30902467.208 -24307958.663 -19025458.725 -14079197.027 -9717325.0841 -6187994.4137 -3303497.6279 -876127.33919 1141040.0768 
2794928.2441 4149595.0834 5269098.5149 6186201.2085 6933665.834 7531512.4674 7999761.1847 8345301.166 8575021.5917 
8683010.7334 8663356.8626 8508989.3928 8212837.7374 7735989.3322 7039531.613 6173201.3479 5186735.3054 3870226.4877 
2013767.8977 489296.0888 168747.6147 -59903300.533 -56277173.82 -47194314.358 -36598926.24 -28435213.558 -21767028.241 
-15658222.217 -10334675.326 -6022267.4082 -2510815.826 409862.0584 2808151.3917 4752437.3205 6321877.0353 7595627.7262 
8616497.5736 9427294.758 10053833.596 10521928.404 10841061.578 11020715.512 11055148.73 10938619.751 10662286.91 
10217308.542 9562716.4075 8657542.267 7549661.1969 6286948.2732 4670491.4458 2501378.6648 667691.329 57510.837359 
-71590851.13 -66090589.397 -55111921.364 -42685400.308 -32841579.507 -24688797.795 -17335394.005 -10982784.65 -5832386.2422 
-1650120.9776 1798088.9469 4603685.1918 6858109.4174 8656684.1379 10094731.868 11225833.35 12103569.33 12759965.698 
13227048.348 13517083.409 13642337.013 13597261.941 13376310.973 12968745.52 12363826.991 11518440.898 10389472.751 
9022700.3358 7463901.4401 5526398.8707 3023515.4348 859165.29658 -62737.37964 -83891985.272 -76409390.876 -63434346.68 
-49082545.036 -37469678.297 -27752817.165 -19089032.338 -11653416.563 -5621062.5869 -732886.83222 3270194.2782 6503971.0229 
9084233.6801 11123324.813 12733586.984 13979959.395 14927381.249 15614425.993 16079667.072 16338308.345 16405553.671 
16276071.338 15944529.634 15398192.015 14624321.936 13577595.134 12212687.347 10573072.81 8702225.7606 6426775.2879 
3573350.4801 1061205.9456 -190403.70691 -96629229.987 -87084896.009 -72041730.744 -55698238.961 -42252925.426 -30915097.431 
-20894062.27 -12337119.481 -5391568.6006 227432.36147 4804725.3966 8481388.63 11398500.186 13686031.729 15473954.923 
16838989.054 17857853.409 18575910.313 19038522.087 19263941.775 19270422.418 19052865.735 18606173.446 17915538.875 
16966155.345 15710456.221 14100874.869 12178410.819 9984063.6034 7358639.6909 4142945.5495 1270888.3479 -323624.74512 
-109612354.54 -97957812.183 -80805683.813 -62433808.673 -47120026.003 -34128575.827 -22723698.168 -13023853.584 -5147502.6344 
1216325.1681 6378600.3092 10506249.099 13766197.847 16306392.99 18274780.963 19760106.527 20851114.44 21600095.687 
22059341.251 22250219.157 22194097.429 21886125.491 21321452.769 20483161.215 19354332.781 17885158.619 16025829.883 
13814738.636 11290276.94 8308081.6133 4723789.4726 1485073.2355 -460394.38048 -122638120.11 -108858030.28 -89589120.846 
-69183902.103 -51994884.327 -37343057.735 -24549412.543 -13702981.666 -4892798.0154 2218199.8651 7967073.4326 12546752.089 
16150165.238 18943298.32 21092136.774 22697507.776 23860238.497 24639579.807 25094782.575 25250346.766 25130772.349 
24731466.74 24047837.355 23060846.604 21751456.893 20067651.941 17957415.464 15456441.057 12600422.31 9260242.9885 
5306786.8586 1700402.688 -598560.75508 -135499610.04 -119612431.37 -98252551.877 -75841322.636 -56800094.707 -40507518.045 
-26342242.604 -14363754.393 -4631539.4185 3217103.2493 9544874.5389 14570448.513 18512499.235 21554828.81 23881239.345 
25604505.365 26837401.399 27646058.832 28096609.052 28216651.149 28033784.214 27543679.809 26742009.494 25607641.635 
24119444.596 22223264.335 19864946.813 17077439.338 13893689.22 10200000.126 5882675.7222 1913454.4251 -735925.34838 
-147991225.32 -130049066.13 -106657449.51 -82299616.982 -61458810.094 -43571332.866 -28073489.322 -14995569.663 -4367864.0877 
4197105.9506 11086819 16545024.087 20815470.235 24099269.086 26597532.282 28434655.726 29735035.323 30571493.654 
31016853.301 31101730.146 30856740.071 30277820.749 29360909.852 28082840.673 26420446.503 24317539.561 21717932.065 
18651820.802 15149402.562 11112328.83 6442251.0954 2120824.4357 -870296.07089 -159913653.74 -140001310.86 -114669597.15 
-88455648.197 -65896599.555 -46485503.232 -29715411.232 -15588229.007 -4105862.0074 5142687.2684 12568416.323 18439080.191 
23022433.908 26536115.397 29197762.581 31142881.547 32506978.381 33369270.873 33808976.817 33859598.497 33554638.199 
32890297.541 31862778.142 30446969.647 28617761.704 26317069.758 23486809.256 20154465.13 16347522.313 11982667.528 
6976587.4999 2319209.243 -999540.22935 -171083122.14 -149315604.9 -122165322.43 -94214385.779 -70044906.013 -49204932.687 
-31242515.357 -16132414.143 -3849389.1609 6039452.5677 13967004.023 20223588.566 25099529.559 28827953.312 31641986.137 
33687562.176 35110615.573 35996364.926 36430028.832 36447821.227 36085956.046 35340892.793 34209090.973 32663617.95 
30677541.09 28191046.055 25144318.507 21562210.46 17469573.925 12797593.354 7477453.1961 2505559.1144 -1121683.2275 
-181331019.2 -157851131.94 -129031239.35 -99488707.402 -73840902.047 -51688330.673 -32631500.663 -16619663.647 -3602071.2537 
6874107.884 15261705.135 21871835.568 27015614.254 30940384.319 33893488.886 36030451.05 37506793.902 38413252.069 
38840560.173 38827428.282 38412566.459 37592682.38 36364483.722 34699364.409 32568718.364 29911195.62 26665446.211 
22853805.852 18498610.258 13544794.436 7937293.3943 2677071.9904 -1234904.9172 -190515736.33 -165489720.45 -135172223.74 
-104205527.56 -77231913.272 -53901125.287 -33862908.009 -17042980.694 -3367062.5946 7635380.1418 16434881.369 23361285.813 
28744438.2 32844430.584 35921355.02 38139352.404 39662563.635 40586678.591 41007387.15 40965645.674 40502410.524 
39614624.659 38299231.034 36526122.065 34265190.167 31453766.246 28029181.206 24011403.652 19420402.189 14213935.047 
8349760.4567 2831389.6558 -1337666.119 -198516934.47 -172131042.58 -140507543.37 -108302823.43 -80173269.305 -55814044.489 
-34920312.454 -17396530.045 -3147154.1066 8313580.244 17471437.888 24672687.812 30263598.998 34515377.659 37699230.004 
39986831.193 41549856.386 42488325.261 42902257.5 42834576.694 42328206.439 41380309.275 39988047.743 38120004.319 
35744761.48 32798566.022 29217664.74 25019836.914 20222861.824 14796236.357 8709457.4004 2966503.1484 -1428648.2048 
-205248072.94 -177703088.32 -144979295.09 -111736118.22 -82632982.671 -57406196.38 -35792067.286 -17676279.324 -2944516.4292 
8901578.5072 18360362.595 25792047.514 31556844.945 35935320.384 39208039.326 41553046.525 43148386.735 44097737.336 
44504775.708 44414092.473 43870278.255 42870697.309 41412713.89 39463806.245 36991452.621 33931063.343 30218048.731 
25868198.465 20897302.222 15285391.788 9012498.9494 3080960.4069 -1506887.1394 -210646301.23 -182153703.32 -148545584.86 
-114473239.9 -84587962.445 -58662570.774 -36469883.144 -17879467.932 -2760893.5145 9394031.2086 19093497.339 26709048.556 
32612228.543 37091119.893 40433805.205 42823474.949 44443319.595 45399968.096 45800049.403 45689505.503 45114278.382 
44071914.398 42559959.908 40545004.934 37993639.498 34840693.53 31020996.959 26548566.921 21437420.552 15676827.952 
9256059.2211 3173699.3544 -1571666.6528 -214684018.94 -185460251.6 -151188310.81 -116500301.83 -86028329.934 -59576879.643 
-36950435.488 -18005197.05 -2597363.9101 9788282.2596 19666959.788 27418874.729 33424233.133 37976754.006 41370156.353 
43791525.928 45427948.482 46388283.2 46781389.267 46654237.362 46053798.164 44977779.457 43423889.022 41358049.218 
38746182.401 35522796.56 31622399.679 27057463.647 21840460.349 15968549.155 9438889.435 3244239.5648 -1622642.0791 
-217356033.82 -187618866.07 -152904500.27 -117815045.18 -86952609.539 -60148384.433 -37233560.942 -18053756.415 -2454588.2033 
10083379.097 20079580.886 27920201.616 33991425.739 38590720.49 42015553.106 44455648.379 46100731.101 47061166.094 
47447318.18 47306862.43 46687473.915 45587000.523 44003290.146 41901818.953 39248063.114 35976465.609 32021469.414 
27394234.22 22105919.719 16160198.52 9560743.2329 3292470.136 -1659704.4924 -218688956.03 -188652299.49 -153712633.08 
-118431697.75 -87371234.469 -60384202.696 -37323561.878 -18027102.066 -2332613.3073 10280807.13 20334061.981 28216679.207 
34318186.77 38937948.51 42375328.271 44821457.317 46467466.912 47424516.654 47803766.137 47653276.531 47021109.008 
45905230.225 44303606.841 42181486.059 39504115.081 36206121.87 32222134.389 27562232.43 22236495.783 16253744.202 
9622797.4396 3318805.5252 -1683081.512 -218728107.11 -188598966.89 -153643811.01 -118374187.58 -87301644.723 -60296074.312 
-37227368.234 -17928170.509 -2231125.1554 10383486.106 20435381.554 28314884.173 34412316.949 39027151.165 42458858.106 
44898783.968 46538274.948 47488598.275 47861021.174 47703683.132 47064723.631 45942207.11 44334198.004 42205924.465 
39522614.639 36219321.342 32231097.385 27567170.359 22236767.855 16252522.327 9627066.2278 3323969.2887 -1693198.7594 
-217545680.35 -187519764.98 -152747250.16 -117680363.35 -86771331.979 -59902364.737 -36955670.311 -17761293.289 -2149278.26 
10396408.516 20391800.778 28225608.138 34286540.207 38872486.227 42281335.438 44703523.389 46329485.631 47269947.967 
47635636.202 47474477.319 46834398.303 45713541.262 44110048.305 41989326.769 39316783.99 36028122.834 32059046.166 
27418146.867 22114017.817 16161833.056 9576766.6245 3309129.4684 -1690767.4646 -215223029.27 -185483250.37 -151078337.34 
-116392815.61 -85811210.669 -59223693.662 -36520435.754 -17531273.012 -2086041.5077 10325277.848 20212704.143 27961083.638 
33955262.594 38489971.094 41859939.22 44253640.762 45859549.51 46787243.779 47146301.882 46984166.665 46348280.975 
45236845.559 43648061.163 41547699.384 38901531.817 35646120.4 31718027.071 27125415.327 21876448.663 15987645.887 
9475525.8064 3275605.8266 -1676596.6485 -211844193.71 -182560218.64 -148694260.76 -114555518.86 -84453191.723 -58281333.428 
-35933998.042 -17243041.733 -2040320.6702 10176014.687 19907813.88 27533973.704 33433390.951 37896175.524 41212437.323 
43567714.25 45147544.205 46059796.374 46412339.942 46251881.814 45625128.894 44530322.667 42965704.62 40897582.074 
38292262.353 35087358.891 31220485.125 26699567.682 21532533.193 15736126.25 9327091.4472 3224763.0075 -1651524.8457 

s_xy 1 1089 double
0.0071758393175 0.0064714026072 0.0054318692076 0.0042661020283 0.0031829639785 0.0022092537468 0.0013717700216 0.00066543325337 8.5163892785e-05 
-0.00038549225244 -0.00076298937455 -0.0010611503663 -0.0012937981204 -0.0014705117466 -0.0016008703543 -0.0016919058302 -0.0017506500608 -0.0017800097667 
-0.0017828916687 -0.0017620620508 -0.0017202871969 -0.0016576617216 -0.0015742802391 -0.0014710121476 -0.0013487268452 -0.0012100029846 -0.0010574192183 
-0.00089723567785 -0.00073571249486 -0.00058393461007 -0.00045298696423 -0.00035888759913 -0.0003176545565 9826238.158 8219621.6323 6622450.9853 
5089200.1778 3674343.1709 2421307.4817 1373520.6274 508597.15331 -195848.39509 -759451.76687 -1201848.7111 -1542681.5472 
-1801592.5946 -1992191.8845 -2128089.4482 -2218406.4617 -2272264.1007 -2294915.8808 -2291615.3176 -2264727.588 -2216617.869 
-2147484.3523 -2057525.2298 -1945141.1153 -1808732.6228 -1646650.4113 -1457245.1398 -1238450.0987 -988198.57832 -718131.04634 
-439887.97055 -162604.16602 104585.55216 20044737.915 16767369.03 13509268.98 10381560.279 7495365.4365 4939273.1069 
2801871.9423 1037497.4102 -399515.02161 -1549220.7067 -2451674.9988 -3146946.6544 -3675104.4299 -4063911.6978 -4341131.8308 
-4525371.2961 -4635236.5611 -4681444.3762 -4674711.4919 -4619862.6796 -4521722.7106 -4380695.8802 -4197186.4837 -3967931.9018 
-3689669.5152 -3359034.8005 -2972663.2344 -2526338.8949 -2015845.86 -1464929.7504 -897336.18698 -331699.46004 213346.14015 
30530113.876 25538357.652 20575949.764 15812140.766 11416181.21 7523000.3543 4267527.4598 1580210.9373 -608500.80208 
-2359616.0146 -3734142.9565 -4793110.298 -5597546.7092 -6189738.5463 -6611972.1652 -6892587.0518 -7059922.692 -7130301.7543 
-7120046.9071 -7036506.7534 -6887029.8961 -6672232.1167 -6392729.197 -6043551.8458 -5619730.7718 -5116141.474 -4527659.4514 
-3847863.4386 -3070332.1704 -2231232.5706 -1366731.5629 -505211.01017 324947.22455 41172054.967 34440312.58 27748148.538 
21323809.385 15395541.668 10145307.2 5755067.7954 2131028.1332 -820607.10832 -3182111.9516 -5035760.4194 -6463854.0639 
-7548694.4375 -8347307.7334 -8916720.1449 -9295149.5076 -9520813.6569 -9615724.8857 -9601895.4865 -9489235.5792 -9287655.2834 
-8997985.0249 -8621055.2296 -8150164.4508 -7578611.2419 -6899484.8445 -6105874.5002 -5189120.671 -4140563.8185 -3008977.6415 
-1843135.8384 -681313.39331 438214.70969 51851884.912 43373961.433 34945882.727 26855101.379 19389069.973 12776950.33 
7247904.2695 2683806.4213 -1033468.584 -4007536.2484 -6342012.0741 -8140546.2342 -9506788.9015 -10512558.585 -11229673.795 
-11706265.886 -11990466.213 -12109996.951 -12092580.273 -11950696.936 -11696827.696 -11332018.388 -10857314.845 -10264277.298 
-9544465.9787 -8689177.5111 -7689708.5201 -6535153.2256 -5214605.8475 -3789491.7436 -2321236.2716 -858042.75949 551885.46484 
62416804.519 52211488.098 42066172.417 32326879.069 23339629.646 15380278.122 8724678.4704 3230637.0546 -1244039.7625 
-4824079.3376 -7634209.0275 -9799197.9238 -11443815.118 -12654512.277 -13517741.067 -14091439.697 -14433546.379 -14577431.731 
-14556466.372 -14385674.037 -14080078.459 -13640938.564 -13069513.276 -12355643.208 -11489168.971 -10459613.861 -9256501.1727 
-7866703.0536 -6277091.65 -4561607.8525 -2794192.5515 -1032870.5943 664333.17197 72699546.184 60812973.678 48996286.625 
37652511.307 27184674.006 17914073.754 10162009.579 3762862.4145 -1448986.8051 -5618813.4157 -8891892.753 -11413548.763 
-13329105.393 -14739256.628 -15744696.457 -16412908.014 -16811374.431 -16978963.91 -16954544.652 -16755615.448 -16399675.089 
-15888189.899 -15222626.204 -14391150.924 -13381930.982 -12182763.709 -10781446.434 -9162688.58 -7311199.5693 -5313101.5485 
-3254516.6644 -1203028.9607 773777.51855 82526231.696 69032969.522 55619039.108 42741943.178 30859184.458 20335491.47 
11535592.738 4271482.7228 -1644844.1162 -6378299.7576 -10093796.18 -12956300.543 -15130780.007 -16731539.21 -17872882.79 
-18631415.472 -19083741.98 -19273984.271 -19246264.299 -19020446.141 -18616393.873 -18035772.019 -17280245.106 -16336380.595 
-15190745.951 -13829489.087 -12238757.918 -10401195.061 -8299443.137 -6031265.289 -3694424.6616 -1365640.5296 878367.83211 
91720160.002 76723665.674 61815341.15 47503657.765 34297086.851 22600989.928 12820728.512 4747352.0931 -1828089.8379 
-7088881.4657 -11218306.975 -14399711.879 -16816441.69 -18595535.285 -19864031.539 -20707069.413 -21209787.869 -21421224.317 
-21390416.171 -21139440.485 -20690374.316 -20045067.627 -19205370.382 -18156353.577 -16883088.208 -15370178.981 -13602230.604 
-11559951.977 -9224051.9991 -6703185.2292 -4106006.2251 -1517781.2595 976223.39523 100109447.15 83741281.673 67469350.552 
51848633.019 37434108.308 24668214.781 13993390.802 5181573.9685 -1995298.1221 -7737273.9475 -12244401.985 -15716797.651 
-18354576.361 -20296396.744 -21680917.428 -22601064.706 -23149764.868 -23380540.588 -23346914.54 -23072983.082 -22582842.573 
-21878512.185 -20962011.091 -19817044.789 -18427318.777 -16776029.614 -14846373.859 -12617295.93 -10067740.245 -7316299.5727 
-4481566.6826 -1656606.822 1065514.7613 107527816.94 89946727.928 72469004.49 55690751.256 40208072.863 26496193.502 
15030337.369 5565542.0441 -2143154.8901 -8310626.0228 -13151743.943 -16881453.137 -19714698.094 -21800412.406 -23287529.665 
-24275862.243 -24865222.511 -25113099.311 -25076981.485 -24782750.995 -24256289.803 -23499766.706 -22515350.503 -21285539.227 
-19792830.911 -18019176.937 -15946528.683 -13552270.296 -10813785.919 -7858456.3545 -4813662.402 -1779365.6859 1144472.1698 
113826566.43 95215614.837 76714083.748 58952996.332 42563375.759 28048283.838 15910782.379 5891559.5914 -2268696.3189 
-8797444.7172 -13922144.969 -17870332.55 -20869542.935 -23077433.929 -24651663.336 -25697890.323 -26321774.054 -26584170.946 
-26545937.416 -26234471.534 -25677171.371 -24876332.769 -23834251.571 -22532400.581 -20952252.606 -19074701.775 -16880642.221 
-14346133.299 -11447234.366 -8318787.9171 -5095636.4482 -1883597.1214 1211512.9012 118871300.42 99435521.172 80114011.885 
61565762.349 44449762.349 29291369.133 16615939.947 6152670.4364 -2369243.7553 -9187342.8737 -14539167.165 -18662336.358 
-21794470.181 -24100213.752 -25744212.184 -26836807.404 -27488341.337 -27762367.523 -27722439.502 -27397169.614 -26815170.199 
-25978838.849 -24890573.156 -23531024.81 -21880845.501 -19920082.599 -17628783.47 -14981946.436 -11954569.816 -8687472.2542 
-5321472.3951 -1967077.1624 1265206.5205 122556949.82 102518556.92 82597976.967 63474631.975 45827943.955 30199559.053 
17131123.417 6343436.2982 -2442703.0493 -9472199.8963 -14989959.513 -19240969.118 -22470215.929 -24847449.947 -26542421.169 
-27668892.715 -28340627.703 -28623150.173 -28581984.169 -28246629.167 -27646584.641 -26784322.522 -25662314.742 -24260613.088 
-22559269.349 -20537712.255 -18175370.535 -15446467.323 -12325225.751 -8956830.6 -5486466.6489 -2028067.1299 1304434.7247 
124799955.35 104394824.98 84109663.737 64636328.241 46666675.11 30752263.558 17444652.798 6459532.2255 -2487408.7676 
-9645557.6442 -15264301.868 -19593112.349 -22881459.999 -25302201.537 -27028193.683 -28175281.62 -28859310.527 -29147003.651 
-29105084.237 -28763591.654 -28152565.269 -27274522.252 -26131979.776 -24704624.542 -22972143.251 -20913588.142 -18508011.457 
-15729164.565 -12550798.839 -9120756.1927 -5586878.5398 -2065184.289 1328308.151 125554398.03 105025914.24 84618124.813 
65027068.799 46948785.235 30938167.63 17550109.491 6498581.4923 -2502445.6905 -9703867.1225 -15356577.868 -19711556.943 
-23019783.364 -25455158.807 -27191584.949 -28345607.28 -29033771.289 -29323203.58 -29281030.755 -28937473.775 -28322753.603 
-27439402.627 -26289953.236 -24853969.331 -23111014.816 -21040015.297 -18619896.381 -15824250.76 -12626671.128 -9175893.1329 
-5620652.4267 -2077668.7739 1336338.0605 124799955.35 104394824.98 84109663.737 64636328.241 46666675.11 30752263.558 
17444652.798 6459532.2255 -2487408.7676 -9645557.6442 -15264301.868 -19593112.349 -22881459.999 -25302201.537 -27028193.683 
-28175281.62 -28859310.527 -29147003.651 -29105084.237 -28763591.654 -28152565.269 -27274522.252 -26131979.776 -24704624.542 
-22972143.251 -20913588.142 -18508011.457 -15729164.565 -12550798.839 -9120756.1927 -5586878.5398 -2065184.289 1328308.151 
122556949.82 102518556.92 82597976.967 63474631.975 45827943.955 30199559.053 17131123.417 6343436.2982 -2442703.0493 
-9472199.8963 -14989959.513 -19240969.118 -22470215.929 -24847449.947 -26542421.169 -27668892.715 -28340627.703 -28623150.173 
-28581984.169 -28246629.167 -27646584.641 -26784322.522 -25662314.742 -24260613.088 -22559269.349 -20537712.255 -18175370.535 
-15446467.323 -12325225.751 -8956830.6 -5486466.6489 -2028067.1299 1304434.7247 118871300.42 99435521.172 80114011.885 
61565762.349 44449762.349 29291369.133 16615939.947 6152670.4364 -2369243.7553 -9187342.8737 -14539167.165 -18662336.358 
-21794470.181 -24100213.752 -25744212.184 -26836807.404 -27488341.337 -27762367.523 -27722439.502 -27397169.614 -26815170.199 
-25978838.849 -24890573.156 -23531024.81 -21880845.501 -19920082.599 -17628783.47 -14981946.436 -11954569.816 -8687472.2542 
-5321472.3951 -1967077.1624 1265206.5205 113826566.43 95215614.837 76714083.748 58952996.332 42563375.759 28048283.838 
15910782.379 5891559.5914 -2268696.3189 -8797444.7172 -13922144.969 -17870332.55 -20869542.935 -23077433.929 -24651663.336 
-25697890.323 -26321774.054 -26584170.946 -26545937.416 -26234471.534 -25677171.371 -24876332.769 -23834251.571 -22532400.581 
-20952252.606 -19074701.775 -16880642.221 -14346133.299 -11447234.366 -8318787.9171 -5095636.4482 -1883597.1214 1211512.9012 
107527816.94 89946727.928 72469004.49 55690751.256 40208072.863 26496193.502 15030337.369 5565542.0441 -2143154.8901 
-8310626.0228 -13151743.943 -16881453.137 -19714698.094 -21800412.406 -23287529.665 -24275862.243 -24865222.511 -25113099.311 
-25076981.485 -24782750.995 -24256289.803 -23499766.706 -22515350.503 -21285539.227 -19792830.911 -18019176.937 -15946528.683 
-13552270.296 -10813785.919 -7858456.3545 -4813662.402 -1779365.6859 1144472.1698 100109447.15 83741281.673 67469350.552 
51848633.019 37434108.308 24668214.781 13993390.802 5181573.9685 -1995298.1221 -7737273.9475 -12244401.985 -15716797.651 
-18354576.361 -20296396.744 -21680917.428 -22601064.706 -23149764.868 -23380540.588 -23346914.54 -23072983.082 -22582842.573 
-21878512.185 -20962011.091 -19817044.789 -18427318.777 -16776029.614 -14846373.859 -12617295.93 -10067740.245 -7316299.5727 
-4481566.6826 -1656606.822 1065514.7613 91720160.002 76723665.674 61815341.15 47503657.765 34297086.851 22600989.928 
12820728.512 4747352.0931 -1828089.8379 -7088881.4657 -11218306.975 -14399711.879 -16816441.69 -18595535.285 -19864031.539 
-20707069.413 -21209787.869 -21421224.317 -21390416.171 -21139440.485 -20690374.316 -20045067.627 -19205370.382 -18156353.577 
-16883088.208 -15370178.981 -13602230.604 -11559951.977 -9224051.9991 -6703185.2292 -4106006.2251 -1517781.2595 976223.39523 
82526231.696 69032969.522 55619039.108 42741943.178 30859184.458 20335491.47 11535592.738 4271482.7228 -1644844.1162 
-6378299.7576 -10093796.18 -12956300.543 -15130780.007 -16731539.21 -17872882.79 -18631415.472 -19083741.98 -19273984.271 
-19246264.299 -19020446.141 -18616393.873 -18035772.019 -17280245.106 -16336380.595 -15190745.951 -13829489.087 -12238757.918 
-10401195.061 -8299443.137 -6031265.289 -3694424.6616 -1365640.5296 878367.83211 72699546.184 60812973.678 48996286.625 
37652511.307 27184674.006 17914073.754 10162009.579 3762862.4145 -1448986.8051 -5618813.4157 -8891892.753 -11413548.763 
-13329105.393 -14739256.628 -15744696.457 -16412908.014 -16811374.431 -16978963.91 -16954544.652 -16755615.448 -16399675.089 
-15888189.899 -15222626.204 -14391150.924 -13381930.982 -12182763.709 -10781446.434 -9162688.58 -7311199.5693 -5313101.5485 
-3254516.6644 -1203028.9607 773777.51855 62416804.519 52211488.098 42066172.417 32326879.069 23339629.646 15380278.122 
8724678.4704 3230637.0546 -1244039.7625 -4824079.3376 -7634209.0275 -9799197.9238 -11443815.118 -12654512.277 -13517741.067 
-14091439.697 -14433546.379 -14577431.731 -14556466.372 -14385674.037 -14080078.459 -13640938.564 -13069513.276 -12355643.208 
-11489168.971 -10459613.861 -9256501.1728 -7866703.0536 -6277091.65 -4561607.8525 -2794192.5515 -1032870.5943 664333.17197 
51851884.912 43373961.433 34945882.727 26855101.379 19389069.973 12776950.33 7247904.2695 2683806.4213 -1033468.584 
-4007536.2484 -6342012.0741 -8140546.2342 -9506788.9015 -10512558.585 -11229673.795 -11706265.886 -11990466.213 -12109996.951 
-12092580.273 -11950696.936 -11696827.696 -11332018.388 -10857314.845 -10264277.298 -9544465.9787 -8689177.5112 -7689708.5202 
-6535153.2256 -5214605.8475 -3789491.7436 -2321236.2716 -858042.75949 551885.46483 41172054.967 34440312.58 27748148.538 
21323809.385 15395541.668 10145307.2 5755067.7954 2131028.1332 -820607.10832 -3182111.9516 -5035760.4194 -6463854.0639 
-7548694.4375 -8347307.7334 -8916720.1449 -9295149.5076 -9520813.657 -9615724.8857 -9601895.4865 -9489235.5792 -9287655.2834 
-8997985.0249 -8621055.2296 -8150164.4508 -7578611.2419 -6899484.8445 -6105874.5003 -5189120.671 -4140563.8185 -3008977.6415 
-1843135.8384 -681313.39331 438214.70968 30530113.876 25538357.652 20575949.764 15812140.766 11416181.21 7523000.3543 
4267527.4598 1580210.9373 -608500.80208 -2359616.0146 -3734142.9565 -4793110.298 -5597546.7092 -6189738.5463 -6611972.1652 
-6892587.0518 -7059922.692 -7130301.7543 -7120046.9071 -7036506.7534 -6887029.8961 -6672232.1167 -6392729.197 -6043551.8458 
-5619730.7718 -5116141.474 -4527659.4514 -3847863.4386 -3070332.1704 -2231232.5706 -1366731.5629 -505211.01017 324947.22455 
20044737.915 16767369.03 13509268.98 10381560.279 7495365.4365 4939273.1069 2801871.9423 1037497.4102 -399515.02161 
-1549220.7067 -2451674.9988 -3146946.6544 -3675104.4299 -4063911.6979 -4341131.8308 -4525371.2961 -4635236.5611 -4681444.3762 
-4674711.4919 -4619862.6796 -4521722.7106 -4380695.8802 -4197186.4837 -3967931.9018 -3689669.5152 -3359034.8005 -2972663.2344 
-2526338.8949 -2015845.86 -1464929.7504 -897336.18698 -331699.46004 213346.14014 9826238.158 8219621.6323 6622450.9853 
5089200.1778 3674343.1709 2421307.4817 1373520.6274 508597.15331 -195848.39509 -759451.76687 -1201848.7111 -1542681.5472 
-1801592.5946 -1992191.8845 -2128089.4482 -2218406.4617 -2272264.1007 -2294915.8808 -2291615.3176 -2264727.588 -2216617.869 
-2147484.3523 -2057525.2298 -1945141.1153 -1808732.6228 -1646650.4113 -1457245.1398 -1238450.0987 -988198.57833 -718131.04634 
-439887.97055 -162604.16602 104585.55216 0.0071699411842 0.0064675495194 0.0054286688245 0.0042631830224 0.0031809760361 0.0022081528646 
0.0013708185067 0.00066426565103 8.3786986197e-05 -0.00038712689571 -0.00076498540261 -0.0010629017698 -0.0012939892326 -0.0014693107842 -0.0015999294176 
-0.0016915555495 -0.0017498995961 -0.0017789422446 -0.0017826641818 -0.0017629961326 -0.0017218688219 -0.0016592963648 -0.0015752928767 -0.0014713624283 
-0.0013490090906 -0.0012104533455 -0.0010579156749 -0.00089758595855 -0.00073565407606 -0.00058376780973 -0.00045357494186 -0.00035988840113 -0.00031752111624 

s_yy 1 1089 double
-211844193.71 -182560218.64 -148694260.76 -114555518.86 -84453191.723 -58281333.428 -35933998.042 -17243041.733 -2040320.6701 
10176014.687 19907813.88 27533973.704 33433390.951 37896175.524 41212437.323 43567714.25 45147544.205 46059796.374 
46412339.942 46251881.814 45625128.894 44530322.667 42965704.62 40897582.074 38292262.353 35087358.891 31220485.125 
26699567.682 21532533.193 15736126.25 9327091.4472 3224763.0075 -1651524.8457 -215223029.27 -185483250.37 -151078337.34 
-116392815.61 -85811210.669 -59223693.662 -36520435.754 -17531273.012 -2086041.5076 10325277.848 20212704.143 27961083.638 
33955262.594 38489971.094 41859939.22 44253640.762 45859549.51 46787243.779 47146301.882 46984166.665 46348280.975 
45236845.559 43648061.163 41547699.384 38901531.817 35646120.4 31718027.071 27125415.327 21876448.663 15987645.887 
9475525.8064 3275605.8266 -1676596.6485 -217545680.35 -187519764.98 -152747250.16 -117680363.35 -86771331.979 -59902364.737 
-36955670.311 -17761293.289 -2149278.26 10396408.516 20391800.778 28225608.138 34286540.207 38872486.227 42281335.438 
44703523.389 46329485.631 47269947.967 47635636.202 47474477.319 46834398.303 45713541.262 44110048.305 41989326.769 
39316783.99 36028122.834 32059046.166 27418146.867 22114017.817 16161833.056 9576766.6244 3309129.4684 -1690767.4647 
-218728107.11 -188598966.89 -153643811.01 -118374187.58 -87301644.723 -60296074.312 -37227368.234 -17928170.509 -2231125.1554 
10383486.106 20435381.554 28314884.173 34412316.949 39027151.165 42458858.106 44898783.968 46538274.948 47488598.275 
47861021.174 47703683.132 47064723.631 45942207.11 44334198.004 42205924.465 39522614.639 36219321.342 32231097.385 
27567170.359 22236767.855 16252522.327 9627066.2278 3323969.2887 -1693198.7594 -218688956.03 -188652299.49 -153712633.08 
-118431697.75 -87371234.469 -60384202.696 -37323561.878 -18027102.065 -2332613.3073 10280807.13 20334061.981 28216679.207 
34318186.77 38937948.51 42375328.271 44821457.317 46467466.912 47424516.654 47803766.137 47653276.531 47021109.008 
45905230.225 44303606.841 42181486.059 39504115.081 36206121.869 32222134.389 27562232.43 22236495.783 16253744.202 
9622797.4396 3318805.5252 -1683081.512 -217356033.82 -187618866.07 -152904500.27 -117815045.18 -86952609.539 -60148384.433 
-37233560.942 -18053756.415 -2454588.2033 10083379.097 20079580.886 27920201.616 33991425.739 38590720.49 42015553.106 
44455648.379 46100731.101 47061166.094 47447318.18 47306862.43 46687473.915 45587000.523 44003290.146 41901818.953 
39248063.114 35976465.609 32021469.414 27394234.22 22105919.719 16160198.52 9560743.2329 3292470.136 -1659704.4925 
-214684018.94 -185460251.6 -151188310.81 -116500301.83 -86028329.934 -59576879.643 -36950435.488 -18005197.05 -2597363.9101 
9788282.2596 19666959.788 27418874.729 33424233.133 37976754.006 41370156.353 43791525.928 45427948.482 46388283.2 
46781389.267 46654237.362 46053798.164 44977779.457 43423889.022 41358049.218 38746182.401 35522796.56 31622399.679 
27057463.647 21840460.349 15968549.155 9438889.435 3244239.5648 -1622642.0791 -210646301.23 -182153703.32 -148545584.86 
-114473239.9 -84587962.445 -58662570.774 -36469883.144 -17879467.932 -2760893.5145 9394031.2086 19093497.339 26709048.556 
32612228.543 37091119.893 40433805.205 42823474.949 44443319.595 45399968.096 45800049.403 45689505.503 45114278.382 
44071914.398 42559959.908 40545004.934 37993639.498 34840693.53 31020996.959 26548566.921 21437420.552 15676827.952 
9256059.2211 3173699.3544 -1571666.6529 -205248072.94 -177703088.32 -144979295.09 -111736118.22 -82632982.671 -57406196.38 
-35792067.286 -17676279.324 -2944516.4292 8901578.5072 18360362.595 25792047.514 31556844.945 35935320.384 39208039.326 
41553046.525 43148386.735 44097737.336 44504775.708 44414092.473 43870278.255 42870697.309 41412713.89 39463806.245 
36991452.621 33931063.343 30218048.731 25868198.465 20897302.222 15285391.788 9012498.9494 3080960.4069 -1506887.1394 
-198516934.47 -172131042.58 -140507543.37 -108302823.43 -80173269.305 -55814044.489 -34920312.454 -17396530.045 -3147154.1066 
8313580.244 17471437.888 24672687.812 30263598.998 34515377.659 37699230.004 39986831.193 41549856.386 42488325.261 
42902257.5 42834576.694 42328206.439 41380309.275 39988047.743 38120004.319 35744761.48 32798566.022 29217664.74 
25019836.914 20222861.824 14796236.357 8709457.4004 2966503.1484 -1428648.2048 -190515736.33 -165489720.45 -135172223.74 
-104205527.56 -77231913.272 -53901125.287 -33862908.009 -17042980.694 -3367062.5946 7635380.1418 16434881.369 23361285.813 
28744438.2 32844430.584 35921355.02 38139352.404 39662563.635 40586678.591 41007387.15 40965645.674 40502410.524 
39614624.659 38299231.034 36526122.065 34265190.167 31453766.246 28029181.206 24011403.652 19420402.189 14213935.047 
8349760.4567 2831389.6558 -1337666.119 -181331019.2 -157851131.94 -129031239.35 -99488707.402 -73840902.047 -51688330.673 
-32631500.663 -16619663.647 -3602071.2537 6874107.884 15261705.135 21871835.568 27015614.254 30940384.319 33893488.886 
36030451.05 37506793.902 38413252.069 38840560.173 38827428.282 38412566.459 37592682.38 36364483.722 34699364.409 
32568718.364 29911195.62 26665446.211 22853805.852 18498610.258 13544794.436 7937293.3943 2677071.9904 -1234904.9172 
-171083122.14 -149315604.9 -122165322.43 -94214385.779 -70044906.013 -49204932.687 -31242515.357 -16132414.143 -3849389.1609 
6039452.5677 13967004.023 20223588.566 25099529.559 28827953.312 31641986.137 33687562.176 35110615.573 35996364.926 
36430028.832 36447821.227 36085956.046 35340892.793 34209090.973 32663617.95 30677541.09 28191046.055 25144318.507 
21562210.46 17469573.925 12797593.354 7477453.1961 2505559.1144 -1121683.2275 -159913653.74 -140001310.86 -114669597.15 
-88455648.197 -65896599.555 -46485503.232 -29715411.232 -15588229.007 -4105862.0074 5142687.2684 12568416.323 18439080.191 
23022433.908 26536115.397 29197762.581 31142881.547 32506978.381 33369270.873 33808976.817 33859598.497 33554638.199 
32890297.541 31862778.142 30446969.647 28617761.704 26317069.758 23486809.256 20154465.13 16347522.313 11982667.528 
6976587.4999 2319209.243 -999540.22935 -147991225.32 -130049066.13 -106657449.51 -82299616.982 -61458810.094 -43571332.866 
-28073489.322 -14995569.663 -4367864.0877 4197105.9506 11086819 16545024.087 20815470.235 24099269.086 26597532.282 
28434655.726 29735035.323 30571493.654 31016853.301 31101730.146 30856740.071 30277820.749 29360909.852 28082840.673 
26420446.503 24317539.561 21717932.065 18651820.802 15149402.562 11112328.83 6442251.0954 2120824.4357 -870296.07089 
-135499610.04 -119612431.37 -98252551.877 -75841322.636 -56800094.707 -40507518.045 -26342242.604 -14363754.393 -4631539.4185 
3217103.2493 9544874.5389 14570448.513 18512499.235 21554828.81 23881239.345 25604505.365 26837401.399 27646058.832 
28096609.052 28216651.149 28033784.214 27543679.809 26742009.494 25607641.635 24119444.596 22223264.335 19864946.813 
17077439.338 13893689.22 10200000.126 5882675.7222 1913454.4251 -735925.34838 -122638120.11 -108858030.28 -89589120.846 
-69183902.103 -51994884.327 -37343057.735 -24549412.543 -13702981.666 -4892798.0154 2218199.8651 7967073.4326 12546752.089 
16150165.238 18943298.32 21092136.774 22697507.776 23860238.497 24639579.807 25094782.575 25250346.766 25130772.349 
24731466.74 24047837.355 23060846.604 21751456.893 20067651.941 17957415.464 15456441.057 12600422.31 9260242.9885 
5306786.8586 1700402.688 -598560.75508 -109612354.54 -97957812.183 -80805683.813 -62433808.673 -47120026.003 -34128575.827 
-22723698.168 -13023853.584 -5147502.6344 1216325.1681 6378600.3092 10506249.099 13766197.847 16306392.99 18274780.963 
19760106.527 20851114.44 21600095.687 22059341.251 22250219.157 22194097.429 21886125.491 21321452.769 20483161.215 
19354332.781 17885158.619 16025829.883 13814738.636 11290276.94 8308081.6133 4723789.4726 1485073.2355 -460394.38049 
-96629229.987 -87084896.009 -72041730.744 -55698238.961 -42252925.426 -30915097.431 -20894062.27 -12337119.481 -5391568.6006 
227432.36147 4804725.3966 8481388.63 11398500.186 13686031.729 15473954.923 16838989.054 17857853.409 18575910.313 
19038522.087 19263941.775 19270422.418 19052865.735 18606173.446 17915538.875 16966155.345 15710456.221 14100874.869 
12178410.819 9984063.6034 7358639.6909 4142945.5495 1270888.3479 -323624.74512 -83891985.272 -76409390.876 -63434346.68 
-49082545.036 -37469678.297 -27752817.165 -19089032.338 -11653416.563 -5621062.5869 -732886.83222 3270194.2782 6503971.0229 
9084233.6801 11123324.813 12733586.984 13979959.395 14927381.249 15614425.993 16079667.072 16338308.345 16405553.671 
16276071.338 15944529.634 15398192.015 14624321.936 13577595.134 12212687.347 10573072.81 8702225.7606 6426775.2879 
3573350.4801 1061205.9456 -190403.70691 -71590851.13 -66090589.397 -55111921.364 -42685400.308 -32841579.507 -24688797.795 
-17335394.005 -10982784.65 -5832386.2422 -1650120.9776 1798088.9469 4603685.1918 6858109.4174 8656684.1379 10094731.868 
11225833.35 12103569.33 12759965.698 13227048.348 13517083.409 13642337.013 13597261.941 13376310.973 12968745.52 
12363826.991 11518440.898 10389472.751 9022700.3358 7463901.4401 5526398.8707 3023515.4348 859165.29658 -62737.379637 
-59903300.533 -56277173.82 -47194314.358 -36598926.24 -28435213.558 -21767028.241 -15658222.217 -10334675.326 -6022267.4082 
-2510815.826 409862.0584 2808151.3917 4752437.3205 6321877.0353 7595627.7262 8616497.5736 9427294.758 10053833.596 
10521928.404 10841061.578 11020715.512 11055148.73 10938619.751 10662286.91 10217308.542 9562716.4075 8657542.267 
7549661.1969 6286948.2732 4670491.4458 2501378.6648 667691.329 57510.837357 -48982036.807 -47097163.75 -39784754.727 
-30902467.208 -24307958.663 -19025458.725 -14079197.027 -9717325.0841 -6187994.4137 -3303497.6279 -876127.33919 1141040.0768 
2794928.2441 4149595.0834 5269098.5149 6186201.2085 6933665.834 7531512.4674 7999761.1847 8345301.166 8575021.5917 
8683010.7334 8663356.8626 8508989.3928 8212837.7374 7735989.3322 7039531.613 6173201.3479 5186735.3054 3870226.4877 
2013767.8977 489296.08881 168747.61469 -38960517.579 -38662531.564 -32973558.017 -25665446.629 -20510047.091 -16497355.869 
-12617369.424 -9138034.9701 -6327299.7177 -4018240.0057 -2043932.1725 -377055.14096 1009712.1662 2166579.0945 3143754.9893 
3964807.2486 4653303.2704 5223957.2387 5691483.3376 6060399.9077 6335225.2897 6509903.828 6578379.8669 6535206.3817 
6374936.3476 6060598.2175 5555220.4439 4910141.1094 4176698.2966 3135373.3921 1566647.7827 326170.4301 269590.29613 
-29940185.836 -31058515.091 -26829513.765 -20940748.126 -17079784.446 -14208149.291 -11287369.229 -8602502.4706 -6438607.2257 
-4647643.7323 -3081572.2281 -1730615.5992 -584996.73159 393036.11041 1241234.6624 1974914.6628 2609391.8496 3154616.7159 
3620539.7546 4009554.9546 4324056.3047 4557872.1616 4704830.8821 4760945.0302 4722227.1704 4553513.1773 4219638.9257 
3773265.8343 3267055.3218 2473363.9917 1164548.447 179973.03745 359002.11281 -22000314.94 -24351846.207 -21406513.159 
-16769808.377 -14047224.444 -12177849.901 -10100773.288 -8115323.1911 -6520828.195 -5186068.0388 -3979822.4615 -2907644.7601 
-1975088.2319 -1155358.2464 -421660.17293 234086.3933 819961.85715 1341737.181 1805183.3274 2210835.1661 2559227.5672 
2844101.9651 3059199.794 3201816.3932 3269247.1017 3227986.2107 3044528.0116 2772566.7249 2465796.5714 1890011.7403 
811006.4209 51993.693807 436186.63953 -15186170.746 -18580841.372 -16735562.97 -13176479.62 -11429735.405 -10418124.823 
-9064442.3725 -7679369.8033 -6573588.8639 -5630537.316 -4733652.9215 -3901519.1125 -3152719.3214 -2469853.101 -1835520.004 
-1247817.5518 -704843.26592 -204397.8077 255718.16135 674456.15925 1050767.704 1378336.7771 1650847.3597 1866693.4507 
2024269.0488 2091567.9944 2036584.128 1913748.846 1777493.5443 1388646.2284 508034.90357 -57042.239329 500712.99042 
-9521569.0564 -13765898.635 -12833240.674 -10173526.83 -9236688.7587 -8935383.4465 -8182267.8788 -7296433.4753 -6596971.6555 
-5979762.1496 -5340684.6879 -4709008.9196 -4114004.4942 -3546069.5338 -2995602.1605 -2465799.2958 -1959857.8613 -1478529.9822 
-1022567.784 -594321.98237 -196143.29282 165624.22624 484636.51644 760198.31444 991614.35687 1148212.7823 1199321.7295 
1199813.8031 1204561.608 971030.57389 256686.13046 -146765.64024 552381.34387 -4999198.0806 -9901395.1506 -9695164.2062 
-7757608.9841 -7465833.2206 -7728384.5323 -7453810.5359 -6966714.4733 -6591699.5865 -6234878.8925 -5802365.4086 -5331789.808 
-4860782.764 -4385955.7862 -3903920.3845 -3421902.1652 -2947126.7349 -2482681.929 -2031655.5829 -1597421.6825 -1183354.2135 
-795796.56439 -441092.12339 -119212.07474 169872.39737 396657.23261 531638.3707 629840.03405 746286.44508 636653.81465 
56618.353639 -217323.39065 591325.12907 -1593434.435 -6966400.6977 -7304621.6016 -5915910.3687 -6108080.2211 -6791386.2471 
-6876083.535 -6689477.262 -6558872.6048 -6398451.0013 -6122393.8893 -5774423.1866 -5398260.8112 -4995182.2804 -4566463.1115 
-4122311.7103 -3672936.4829 -3223159.4274 -2777802.5423 -2340990.6908 -1916848.736 -1511691.7708 -1131834.8881 -776707.60673 
-445739.44583 -167431.38493 29715.59642 200598.07446 400112.62543 383667.20715 -93330.222546 -269165.92796 617873.82662 
748077.82457 -4917626.9019 -5626888.2682 -4621773.1746 -5144348.5217 -6112063.568 -6442367.5725 -6462606.8302 -6500127.6363 
-6475112.1654 -6307742.5922 -6045671.1812 -5736550.1969 -5384842.6144 -4995011.4088 -4579251.5515 -4149758.0138 -3712513.9123 
-3273502.3637 -2837339.7237 -2408642.3481 -1993671.0362 -1598686.5873 -1222750.6727 -864924.96369 -552865.83349 -314229.65537 
-94510.778263 160796.44886 208268.48147 -195518.22494 -303186.24509 632641.84632 2086956.8931 -3704034.9314 -4620994.3793 
-3843740.1343 -4552090.8796 -5675806.1741 -6144645.5762 -6283505.7005 -6417283.1612 -6470208.9155 -6366513.9208 -6155747.2646 
-5887458.0345 -5567905.771 -5203350.0145 -4807034.3118 -4392202.2097 -3965458.3503 -3533407.3757 -3100912.9847 -2672838.8762 
-2255367.3694 -1854680.7835 -1469636.6558 -1099092.5235 -770010.81441 -509353.95618 -263252.59476 22162.623955 105978.33052 
-252718.84452 -320430.46963 636341.88667 2487827.2301 -3272063.0375 -4243934.9632 -3548789.5746 -4307627.899 -5467253.6609 
-5974470.5845 -6149411.1904 -6312207.9992 -6389310.6533 -6307168.7951 -6115328.1275 -5863334.3533 -5557942.5021 -5205907.6038 
-4820644.8078 -4415569.2638 -3997402.5974 -3572866.4344 -3146843.6197 -2724216.9981 -2311068.0851 -1913478.3957 -1530254.4552 
-1160202.7886 -829734.17968 -565259.41226 -313772.34155 -22266.822727 72097.350626 -267839.61505 -321994.04863 629717.72102 

s_zz 1 1089 double
-302806909.94 -269506237.59 -230600433.32 -191041945.78 -155783223.63 -124854916.83 -98287675.34 -75904400.677 -57527994.368 
-42600057.064 -30562189.417 -20980020.901 -13419180.99 -7546668.9232 -3029483.9398 346195.85438 2794192.3537 4437858.696 
5400548.0192 5733664.5059 5488612.3391 4659107.0412 3238864.1349 1182210.8713 -1556525.4983 -5055978.7928 -9394782.8312 
-14573979.244 -20594609.662 -27420305.842 -35014699.54 -42327031.419 -48306542.137 -308273765.73 -274371885.25 -234763678.18 
-194491004.34 -158595723.57 -127109039.18 -100062154.48 -77274773.672 -58566600.947 -43369155.657 -31113957.15 -21358792.802 
-13661449.991 -7682915.9823 -3084178.0422 352446.05024 2844638.5154 4517979.5004 5498049.1525 5837179.7022 5587703.3799 
4743222.2487 3297338.3716 1203554.4271 -1584626.9064 -5147259.0975 -9564395.6148 -14837096.895 -20966423.373 -27915350.217 
-35646852.594 -43091200.824 -49178665.231 -313569695.58 -279085404.28 -238796755.63 -197832225.14 -161320288.3 -129292684.47 
-101781153.02 -78602300.781 -59572734.601 -44114207.723 -31648473.391 -21725722.074 -13896144.242 -7814903.1592 -3137162.0853 
358500.82956 2893507.4357 4595595.2602 5592501.8303 5937458.408 5683696.2552 4824707.5228 3353984.3618 1224230.6587 
-1611849.6997 -5235685.4452 -9728705.3096 -15091987.947 -21326612.01 -28394916.606 -36259240.841 -43831477.82 -50023520.65 
-318666617.66 -283621801.06 -242678280.13 -201047891.22 -163942470.7 -131394273.84 -103435555.89 -79879942.745 -60541060.273 
-44831262.599 -32162903.85 -22078863.062 -14122019.272 -7941930.5887 -3188155.1209 364328.08537 2940539.9843 4670294.4142 
5683405.2131 6033968.8913 5776081.9588 4903130.7846 3408501.7377 1244129.9296 -1638049.5282 -5320788.9519 -9886840.6572 
-15337300.831 -21673265.66 -28856462.091 -36848617.071 -44543937.059 -50836628.518 -323535987.35 -287955670.15 -246386513.74 
-204119993.71 -166447585.62 -133402037.63 -105016097.86 -81100544.312 -61466154.99 -45516304.52 -32654367.533 -22416238.052 
-14337810.099 -8063286.8715 -3236871.5697 369895.18285 2985472.762 4741658.6201 5770250.2091 6126170.6585 5864343.0973 
4978052.8354 3460585.1823 1263140.7965 -1663079.6639 -5402093.0076 -10037916.043 -15571661.708 -22004442.938 -29297401.852 
-37411680.565 -45224588.515 -51613435.139 -328149112.53 -292061474.77 -249899606.18 -207030430.63 -168820871.99 -135304145.34 
-106513465.77 -82256913.24 -62342567.748 -46165296.961 -33119968.551 -22735859.103 -14542245.201 -8178256.9309 -3283024.3759 
375169.31878 3028041.0082 4809267.3734 5852525.0953 6213520.4224 5947959.6032 5049032.2063 3509927.8003 1281151.2399 
-1686792.6201 -5479118.5387 -10181041.275 -15793689.635 -22318192.424 -29715137.706 -37945113.544 -45869421.536 -52349363.278 
-332477502.35 -295913857.31 -253195860.44 -209761227.01 -171047672.29 -137088849.5 -107918411.82 -83341907.75 -63164885.789 
-46774231.722 -33556831.334 -23035752.222 -14734061.981 -8286130.7073 -3326328.4981 380117.9199 3067981.8198 4872703.1199 
5929721.7386 6295478.7074 6026415.0577 5115630.5262 3556224.8498 1298050.0269 -1709041.9444 -5551389.8325 -10315332.406 
-16002013.36 -22612576.389 -30107089.702 -38445621.505 -46474453.606 -53039867.815 -336493244.21 -299487974.83 -256254019.89 
-212294772.69 -173113626.51 -138744641.03 -109221875.91 -84348531.012 -63927806.211 -47339181.949 -33962138.675 -23313983.482 
-14912023.464 -8386212.5527 -3366504.68 384709.07398 3105037.6294 4931556.7799 6001342.3194 6371516.9874 6099203.5232 
5177418.3209 3599177.7742 1313728.1819 -1729684.157 -5618440.8312 -10439923.429 -16195289.46 -22885696.432 -30470730.248 
-38909976.809 -47035783.043 -53680495.876 -340169401.55 -302759853.05 -259053571.18 -214614073.3 -175004876.75 -140260413.3 
-110415114.72 -85270030.855 -64626211.537 -47856358.101 -34333171.876 -23568686.58 -15074935.931 -8477831.1435 -3403283.43 
388911.98475 3138959.8762 4985433.5783 6066906.4251 6441125.2168 6165836.7535 5233981.1337 3638498.4561 1328080.54 
-1748580.7952 -5679821.7737 -10553978.62 -16372221.488 -23135720.533 -30803620.137 -39335064.68 -47549644.59 -54266950.292 
-343480423.58 -305706751.08 -261575056.29 -216703008.75 -176708278.05 -141625631.09 -111489834.77 -86100002.477 -65255247.566 
-48322165.592 -34667352.104 -23798091.223 -15221667.074 -8560349.6931 -3436409.1207 392697.4403 3169512.7867 5033959.0491 
6125958.3583 6503819.5901 6225851.6201 5284925.8298 3673913.6006 1341007.3461 -1765600.5198 -5735106.0376 -10656705.248 
-16531579.695 -23360910.923 -31103445.648 -39717930.584 -48012466.7 -54795154.965 -346402556.75 -308307527.66 -263800385.88 
-218546592.87 -178211610.08 -142830500.21 -112438325.93 -86832491.599 -65810401.546 -48733262.684 -34962281.925 -24000551.647 
-15351164.231 -8633176.207 -3465644.1059 396038.28346 3196477.1719 5076785.067 6178074.476 6559150.333 6278817.572 
5329886.9282 3705169.1368 1352415.8625 -1780621.2299 -5783897.0094 -10747366.345 -16672220.833 -23559652.069 -31368055.81 
-40055827.811 -48420929.053 -55261320.514 -348914246.84 -310542998.92 -265713145.47 -220131226.99 -179503783.96 -143866133.3 
-113253591.94 -87462095.232 -66287578.547 -49086617.042 -35215785.876 -24174574.46 -15462472.205 -8695773.5021 -3490772.7424 
398909.87147 3219654.1372 5113595.7385 6222870.359 6606709.3147 6324343.9215 5368532.7866 3732034.5176 1362221.9377 
-1793532.1296 -5825834.7968 -10825293.176 -16793107.503 -23730478.015 -31595498.804 -40346263.963 -48772018.747 -55662008.408 
-350996519.5 -312396277.21 -267298885.3 -221444940.14 -180575038.07 -144724706.77 -113929473.94 -87984057.093 -66683173.779 
-49379559.28 -35425948.885 -24318845.025 -15554750.132 -8747668.693 -3511605.1983 401290.5112 3238868.5942 5144112.9807 
6260007.601 6646137.2553 6362086.7438 5400571.4584 3754306.7908 1370351.4926 -1804235.6849 -5860602.5846 -10889897.05 
-16893326.48 -23872098.273 -31784056.434 -40587044.966 -49063083.506 -55994191.686 -352633327.65 -313853080.18 -268545384.83 
-222477608.17 -181417116.77 -145399604.01 -114460763.23 -88394354.672 -66994138.579 -49609831.835 -35591151.327 -24432251.517 
-15627286.867 -8788461.848 -3527980.9277 403161.8562 3253972.4662 5168101.612 6289200.003 6677130.3023 6391755.1732 
5425756.0369 3771814.3148 1376741.8764 -1812649.4084 -5887932.4342 -10940680.096 -16972105.422 -23983421.442 -31932275.575 
-40776315.237 -49291880.234 -56255310.371 -353811854.05 -314902000.15 -269442883.16 -223221144.62 -182023426.06 -145885540.13 
-114843299.48 -88689775.076 -67218037.894 -49775631.525 -35710099.56 -24513905.89 -15679514.404 -8817833.5309 -3539771.6982 
404509.25264 3264847.4804 5185373.7859 6310218.9698 6699445.7606 6413116.8869 5443889.3108 3784419.9943 1381343.0486 
-1818707.4154 -5907610.3354 -10977244.649 -17028827.441 -24063575.793 -32038995.577 -40912592.667 -49456617.306 -56443319.736 
-354522758.66 -315534724.24 -269984267.47 -223669656.84 -182389160.82 -146178664 -115074051.02 -88867977.047 -67353097.283 
-49875644.357 -35781850.899 -24563161.019 -15711018.829 -8835550.9657 -3546884.0659 405322.02216 3271407.4503 5195792.6174 
6322897.9224 6712906.7761 6426002.5895 5454827.5706 3792023.9272 1384118.5439 -1822361.6951 -5919480.3374 -10999300.931 
-17063043.004 -24111926.086 -32103370.666 -40994797.235 -49555989.152 -56556729.775 -354760362.13 -315746197.67 -270165212.7 
-223819561.71 -182511399.22 -146276633.9 -115151174.4 -88927536.946 -67398237.77 -49909071.341 -35805832.13 -24579623.41 
-15721548.457 -8841472.6098 -3549261.2108 405593.67163 3273599.969 5199274.8716 6327135.57 6717405.8102 6430309.3385 
5458483.4317 3794565.3665 1385046.1892 -1823583.0539 -5923447.6119 -11006672.734 -17074478.767 -24128086.056 -32124886.555 
-41022272.217 -49589201.9 -56594634.465 -354522758.66 -315534724.24 -269984267.47 -223669656.84 -182389160.82 -146178664 
-115074051.02 -88867977.047 -67353097.283 -49875644.357 -35781850.899 -24563161.019 -15711018.829 -8835550.9657 -3546884.0659 
405322.02216 3271407.4503 5195792.6174 6322897.9224 6712906.7761 6426002.5895 5454827.5706 3792023.9272 1384118.5439 
-1822361.6951 -5919480.3374 -10999300.931 -17063043.004 -24111926.086 -32103370.666 -40994797.235 -49555989.152 -56556729.775 
-353811854.05 -314902000.15 -269442883.16 -223221144.62 -182023426.06 -145885540.13 -114843299.48 -88689775.076 -67218037.894 
-49775631.525 -35710099.56 -24513905.89 -15679514.404 -8817833.5309 -3539771.6982 404509.25264 3264847.4804 5185373.7859 
6310218.9698 6699445.7606 6413116.8869 5443889.3108 3784419.9943 1381343.0486 -1818707.4154 -5907610.3354 -10977244.649 
-17028827.441 -24063575.793 -32038995.577 -40912592.667 -49456617.306 -56443319.736 -352633327.65 -313853080.18 -268545384.83 
-222477608.17 -181417116.77 -145399604.01 -114460763.23 -88394354.672 -66994138.579 -49609831.835 -35591151.327 -24432251.517 
-15627286.867 -8788461.848 -3527980.9277 403161.8562 3253972.4662 5168101.612 6289200.003 6677130.3023 6391755.1732 
5425756.0369 3771814.3148 1376741.8764 -1812649.4084 -5887932.4342 -10940680.096 -16972105.422 -23983421.442 -31932275.575 
-40776315.237 -49291880.234 -56255310.371 -350996519.5 -312396277.21 -267298885.3 -221444940.14 -180575038.07 -144724706.77 
-113929473.94 -87984057.093 -66683173.779 -49379559.28 -35425948.885 -24318845.025 -15554750.132 -8747668.693 -3511605.1983 
401290.5112 3238868.5942 5144112.9807 6260007.601 6646137.2553 6362086.7438 5400571.4584 3754306.7908 1370351.4926 
-1804235.6849 -5860602.5846 -10889897.05 -16893326.48 -23872098.273 -31784056.434 -40587044.966 -49063083.506 -55994191.686 
-348914246.84 -310542998.92 -265713145.47 -220131226.99 -179503783.96 -143866133.3 -113253591.94 -87462095.232 -66287578.547 
-49086617.042 -35215785.876 -24174574.46 -15462472.205 -8695773.5021 -3490772.7424 398909.87147 3219654.1372 5113595.7385 
6222870.359 6606709.3147 6324343.9214 5368532.7866 3732034.5176 1362221.9377 -1793532.1296 -5825834.7968 -10825293.176 
-16793107.503 -23730478.015 -31595498.804 -40346263.963 -48772018.747 -55662008.408 -346402556.76 -308307527.66 -263800385.88 
-218546592.87 -178211610.08 -142830500.21 -112438325.93 -86832491.599 -65810401.546 -48733262.684 -34962281.925 -24000551.647 
-15351164.231 -8633176.207 -3465644.1059 396038.28346 3196477.1719 5076785.067 6178074.476 6559150.333 6278817.572 
5329886.9282 3705169.1368 1352415.8625 -1780621.2299 -5783897.0094 -10747366.345 -16672220.833 -23559652.069 -31368055.81 
-40055827.811 -48420929.053 -55261320.514 -343480423.58 -305706751.08 -261575056.29 -216703008.75 -176708278.05 -141625631.09 
-111489834.77 -86100002.477 -65255247.566 -48322165.592 -34667352.104 -23798091.223 -15221667.074 -8560349.6931 -3436409.1207 
392697.4403 3169512.7867 5033959.0491 6125958.3583 6503819.5901 6225851.6201 5284925.8298 3673913.6006 1341007.3461 
-1765600.5198 -5735106.0376 -10656705.248 -16531579.695 -23360910.923 -31103445.648 -39717930.584 -48012466.7 -54795154.965 
-340169401.55 -302759853.05 -259053571.18 -214614073.3 -175004876.75 -140260413.3 -110415114.72 -85270030.855 -64626211.537 
-47856358.101 -34333171.876 -23568686.58 -15074935.931 -8477831.1435 -3403283.43 388911.98475 3138959.8762 4985433.5783 
6066906.4251 6441125.2168 6165836.7535 5233981.1337 3638498.4561 1328080.54 -1748580.7952 -5679821.7737 -10553978.62 
-16372221.488 -23135720.533 -30803620.137 -39335064.68 -47549644.59 -54266950.292 -336493244.21 -299487974.83 -256254019.89 
-212294772.69 -173113626.51 -138744641.03 -109221875.91 -84348531.012 -63927806.211 -47339181.949 -33962138.675 -23313983.482 
-14912023.464 -8386212.5527 -3366504.68 384709.07398 3105037.6294 4931556.7799 6001342.3194 6371516.9874 6099203.5232 
5177418.3209 3599177.7742 1313728.1819 -1729684.157 -5618440.8312 -10439923.429 -16195289.46 -22885696.432 -30470730.248 
-38909976.809 -47035783.043 -53680495.876 -332477502.35 -295913857.31 -253195860.44 -209761227.01 -171047672.29 -137088849.5 
-107918411.82 -83341907.75 -63164885.789 -46774231.722 -33556831.334 -23035752.222 -14734061.981 -8286130.7073 -3326328.4981 
380117.9199 3067981.8198 4872703.1199 5929721.7386 6295478.7074 6026415.0577 5115630.5262 3556224.8498 1298050.0269 
-1709041.9444 -5551389.8325 -10315332.406 -16002013.36 -22612576.389 -30107089.702 -38445621.505 -46474453.606 -53039867.815 
-328149112.53 -292061474.77 -249899606.18 -207030430.63 -168820871.99 -135304145.34 -106513465.77 -82256913.24 -62342567.748 
-46165296.961 -33119968.551 -22735859.103 -14542245.201 -8178256.9309 -3283024.3759 375169.31878 3028041.0082 4809267.3734 
5852525.0953 6213520.4224 5947959.6032 5049032.2063 3509927.8003 1281151.2399 -1686792.6201 -5479118.5387 -10181041.275 
-15793689.635 -22318192.424 -29715137.706 -37945113.544 -45869421.536 -52349363.278 -323535987.35 -287955670.15 -246386513.74 
-204119993.71 -166447585.62 -133402037.63 -105016097.86 -81100544.312 -61466154.99 -45516304.52 -32654367.533 -22416238.052 
-14337810.099 -8063286.8715 -3236871.5697 369895.18285 2985472.762 4741658.6201 5770250.2091 6126170.6585 5864343.0973 
4978052.8354 3460585.1823 1263140.7965 -1663079.6639 -5402093.0076 -10037916.043 -15571661.708 -22004442.938 -29297401.852 
-37411680.565 -45224588.515 -51613435.139 -318666617.66 -283621801.06 -242678280.13 -201047891.22 -163942470.7 -131394273.84 
-103435555.89 -79879942.745 -60541060.273 -44831262.599 -32162903.85 -22078863.062 -14122019.272 -7941930.5887 -3188155.1209 
364328.08536 2940539.9843 4670294.4142 5683405.2131 6033968.8913 5776081.9588 4903130.7846 3408501.7377 1244129.9296 
-1638049.5282 -5320788.9519 -9886840.6572 -15337300.831 -21673265.66 -28856462.091 -36848617.071 -44543937.059 -50836628.518 
-313569695.58 -279085404.28 -238796755.63 -197832225.14 -161320288.3 -129292684.47 -101781153.02 -78602300.781 -59572734.601 
-44114207.723 -31648473.391 -21725722.074 -13896144.242 -7814903.1592 -3137162.0853 358500.82956 2893507.4357 4595595.2602 
5592501.8303 5937458.408 5683696.2552 4824707.5228 3353984.3618 1224230.6587 -1611849.6997 -5235685.4452 -9728705.3096 
-15091987.947 -21326612.01 -28394916.606 -36259240.841 -43831477.82 -50023520.65 -308273765.73 -274371885.25 -234763678.18 
-194491004.34 -158595723.57 -127109039.18 -100062154.48 -77274773.672 -58566600.947 -43369155.657 -31113957.15 -21358792.802 
-13661449.991 -7682915.9823 -3084178.0422 352446.05024 2844638.5154 4517979.5004 5498049.1525 5837179.7022 5587703.3799 
4743222.2487 3297338.3716 1203554.4271 -1584626.9064 -5147259.0975 -9564395.6148 -14837096.895 -20966423.373 -27915350.217 
-35646852.594 -43091200.824 -49178665.231 -302806909.94 -269506237.59 -230600433.32 -191041945.78 -155783223.63 -124854916.83 
-98287675.34 -75904400.677 -57527994.368 -42600057.064 -30562189.417 -20980020.901 -13419180.99 -7546668.9232 -3029483.9398 
346195.85437 2794192.3537 4437858.696 5400548.0192 5733664.5059 5488612.3391 4659107.0412 3238864.1349 1182210.8713 
-1556525.4983 -5055978.7928 -9394782.8312 -14573979.244 -20594609.662 -27420305.842 -35014699.54 -42327031.419 -48306542.137 

theta 1 1089 double
373 362.06523045 349.96623942 337.83777219 326.81457406 317.05430863 308.71463948 301.702777 295.92593157 
291.22336178 287.43432623 284.41900607 282.03758249 280.18672451 278.76310119 277.69913541 276.92725005 276.40869143 
276.10470585 275.9991029 276.07569218 276.33611222 276.78200156 277.42832809 278.29005974 279.38886092 280.74639606 
282.37071577 284.26987066 286.40115538 288.72186462 290.99910921 293 379.73411716 368.60193201 356.28450659 
343.93707282 332.71486261 322.778386 314.28815302 307.14969884 301.26855863 296.48108896 292.62364641 289.55388786 
287.12947022 285.24519697 283.79587165 282.7126971 281.92687618 281.39895554 281.08948182 280.98197232 281.05994434 
281.32506599 281.77900538 282.43700065 283.31428994 284.43292881 285.8149728 287.46861786 289.40205997 291.57182277 
293.93442993 296.25278775 298.28980248 386.25768637 374.93425799 362.40522774 349.8456736 338.43067359 328.32349519 
319.68740589 312.42631801 306.44414388 301.57442879 297.65071805 294.52822318 292.06215572 290.14551196 288.67128824 
287.5695055 286.77018472 286.23319476 285.9184045 285.80904806 285.88835958 286.15803584 286.61977359 287.28907277 
288.18143328 289.31928959 290.72507614 292.40712969 294.37378698 296.58082481 298.98401993 301.34220552 303.41421477 
392.5361162 381.02863102 368.29594751 355.53224396 343.93169871 333.66023306 324.88376835 317.50465504 311.42524359 
306.47637367 302.48888493 299.31563543 296.80948325 294.86168539 293.36349887 292.24380719 291.43149385 290.88577538 
290.56586835 290.45473438 290.53533508 290.80939479 291.27863786 291.95881617 292.86568157 294.02203317 295.45067009 
297.1600646 299.15868895 301.40160109 303.84385898 306.24037573 308.34606446 398.53424516 386.85092042 373.92367576 
360.96493706 349.18713024 338.75871197 329.84813891 322.35626942 316.18396183 311.15947094 307.11105157 303.88931339 
301.34486607 299.36730498 297.8462255 296.70942443 295.88469856 295.33064127 295.00584592 294.89301377 294.97484608 
295.25309355 295.72950687 296.42007861 297.34080132 298.5148225 299.96528964 301.70080446 303.7299687 306.00715355 
308.48673024 310.91986684 313.05773145 404.21673005 392.36681909 379.25525181 366.11174145 354.16600123 343.58888977 
334.55126566 326.95257364 320.69225844 315.59612604 311.48998244 308.22230724 305.64158001 303.63582195 302.09305422 
300.94004411 300.10355893 299.54160163 299.2121752 299.09773424 299.18073335 299.4629482 299.94615444 300.64657267 
301.58042347 302.77118438 304.24233295 306.00259354 308.06069053 310.37034454 312.88527617 315.35310556 317.52145283 
409.54847563 397.54226062 384.25774765 370.94087026 358.83756198 348.12093509 338.96410188 331.26518073 324.92229001 
319.75893803 315.59863311 312.28785624 309.67308841 307.64087377 306.07775644 304.90953777 304.06201909 303.4926494 
303.15887773 303.04292725 303.12702115 303.4129585 303.90253839 304.61219535 305.55836393 306.76483136 308.25538484 
310.03886382 312.12410776 314.46422682 317.01233119 319.51271203 321.70966048 414.49509892 402.34387001 388.89890356 
375.42118178 363.17168687 352.32562203 343.05819043 335.26627989 328.84677823 323.62106206 319.410508 316.05974278 
313.41339317 311.35663296 309.77463594 308.59230724 307.73455203 307.15830536 306.82050231 306.70315136 306.78826097 
307.07765193 307.57314508 308.29137345 309.24897008 310.4700095 311.97856624 313.7835865 315.89401651 318.26240009 
320.84128106 323.37186209 325.5953458 419.02341926 406.7394393 393.14758784 379.52262321 367.13930372 356.17474663 
346.8060692 338.92903276 332.43939864 327.15659201 322.90003804 319.51266602 316.83740529 314.75817516 313.15889497 
311.96364945 311.09652333 310.51398122 310.17248772 310.05385471 310.13989413 310.43244667 310.93335303 311.65942798 
312.62748626 313.86186543 315.38690301 317.21164295 319.34512921 321.73938716 324.34644217 326.90466955 329.15244462 
423.10196296 410.69841749 396.97427042 383.21668786 370.71283595 359.64155588 350.18168889 342.22798171 335.67518106 
330.3409545 326.04296956 322.62262673 319.92132648 317.82185827 316.20701156 315.00013218 314.12456594 313.53635368 
313.19153626 313.07174855 313.15862543 313.45402552 313.95980742 314.69294958 315.67043042 316.91682435 318.45670581 
320.29920677 322.45345921 324.87102154 327.5034522 330.08657996 332.35623364 426.70147023 414.19240256 400.35149837 
386.47687424 373.86664677 362.70117865 353.16083257 345.13945984 338.53091175 333.15130466 328.81675495 325.36731382 
322.64303246 320.52570319 318.8971183 317.67997148 316.79695642 316.20374 315.85598907 315.73518228 315.82279825 
316.12071143 316.63079624 317.37017555 318.35597223 319.61296976 321.16595164 323.02412753 325.19670711 327.63483667 
330.28966253 332.89476605 335.18372863 429.79539039 417.19562217 403.25436057 389.27913455 376.57747304 365.33104652 
355.72152545 347.64199148 340.98552623 335.56691278 331.20093419 327.7264819 324.98244737 322.8497658 321.20937239 
319.9834003 319.0939827 318.49646499 318.1461926 318.02450986 318.11276112 318.4128344 318.92661772 319.67135811 
320.66430259 321.93041434 323.49465656 325.36630568 327.55463816 330.01044608 332.6845215 335.30851407 337.61407342 
432.36035069 419.68538877 405.66092762 391.60229935 378.82483606 367.5112924 357.84442302 349.71667149 343.02048137 
337.56953037 333.17749621 329.68230887 326.92189831 324.77648919 323.12630614 321.89301762 320.99829209 320.39720847 
320.0448457 319.92243678 320.01121471 320.31307879 320.8299283 321.5791132 322.57798343 323.85165117 325.42522857 
327.30804744 329.50943959 331.97990343 334.66993737 337.30958957 339.62890818 434.37658421 421.64251492 407.55265326 
393.42846514 380.59141648 369.22511418 359.51316513 351.34751131 344.62009473 339.14372421 334.7312086 331.21972209 
328.44643887 326.29102502 324.63314664 323.3941069 322.49520899 321.89132233 321.53731638 321.41433662 321.50352856 
321.80680032 322.32606007 323.07873865 324.08226694 325.36187419 326.94278968 328.83438873 331.04604667 333.52803107 
336.23060949 338.88257122 341.21270556 435.82830255 423.05167507 408.91472406 394.74333187 381.86338086 370.45909154 
360.71468444 352.52174041 345.77184031 340.27716737 335.84990481 332.32668265 329.54413091 327.38151351 325.71809438 
324.47491368 323.57301158 322.96710669 322.61191763 322.48852686 322.57801688 322.88230221 323.40329736 324.15849145 
325.1653736 326.44925739 328.03545641 329.93337733 332.15242679 334.64270616 337.3543168 340.01514158 342.3530634 
436.70400059 423.90170138 409.73634538 395.53647899 382.63064864 371.20344499 361.43945872 353.23005283 346.46659034 
340.96087709 336.52471895 332.99441768 330.20627504 328.03931235 326.37255096 325.12687237 324.2231581 323.61603578 
323.26013304 323.13649436 323.22616418 323.5310609 324.05310287 324.80981435 325.8187196 327.10518307 328.6945692 
330.59630356 332.8198117 335.31509472 338.03215372 340.69832483 343.04094416 436.99668247 424.18580307 410.01095336 
395.80157013 382.88709021 371.45222797 361.68169781 353.46678992 346.69879451 341.1893913 336.75026002 333.21759272 
330.42758144 328.25916644 326.59128798 325.34477453 324.44045458 323.83292537 323.4767841 323.35306255 323.44279247 
323.74789353 324.27028538 325.02750402 326.03708544 327.3244111 328.91486245 330.81787136 333.04286971 335.53982509 
338.25870508 340.92666307 343.27085245 436.70400059 423.90170138 409.73634538 395.53647899 382.63064864 371.20344499 
361.43945872 353.23005283 346.46659034 340.96087709 336.52471895 332.99441768 330.20627504 328.03931235 326.37255096 
325.12687237 324.2231581 323.61603578 323.26013304 323.13649436 323.22616418 323.5310609 324.05310287 324.80981435 
325.8187196 327.10518307 328.6945692 330.59630356 332.8198117 335.31509472 338.03215372 340.69832483 343.04094416 
435.82830255 423.05167507 408.91472406 394.74333187 381.86338086 370.45909154 360.71468444 352.52174041 345.77184031 
340.27716737 335.84990481 332.32668265 329.54413091 327.38151351 325.71809438 324.47491368 323.57301158 322.96710669 
322.61191763 322.48852686 322.57801688 322.88230221 323.40329736 324.15849145 325.1653736 326.44925739 328.03545641 
329.93337733 332.15242679 334.64270616 337.3543168 340.01514158 342.3530634 434.37658421 421.64251492 407.55265326 
393.42846514 380.59141648 369.22511418 359.51316513 351.34751131 344.62009473 339.14372421 334.7312086 331.21972209 
328.44643887 326.29102502 324.63314664 323.3941069 322.49520899 321.89132233 321.53731638 321.41433662 321.50352856 
321.80680032 322.32606007 323.07873865 324.08226694 325.36187419 326.94278968 328.83438873 331.04604667 333.52803107 
336.23060949 338.88257122 341.21270556 432.36035069 419.68538877 405.66092762 391.60229935 378.82483606 367.5112924 
357.84442302 349.71667149 343.02048137 337.56953037 333.17749621 329.68230887 326.92189831 324.77648919 323.12630614 
321.89301762 320.99829209 320.39720847 320.0448457 319.92243678 320.01121471 320.31307879 320.8299283 321.5791132 
322.57798343 323.85165117 325.42522857 327.30804744 329.50943959 331.97990343 334.66993737 337.30958957 339.62890818 
429.79539039 417.19562217 403.25436057 389.27913455 376.57747304 365.33104652 355.72152545 347.64199148 340.98552623 
335.56691278 331.20093419 327.7264819 324.98244737 322.8497658 321.20937239 319.9834003 319.0939827 318.49646499 
318.1461926 318.02450986 318.11276112 318.4128344 318.92661772 319.67135811 320.66430259 321.93041434 323.49465656 
325.36630568 327.55463816 330.01044608 332.6845215 335.30851407 337.61407342 426.70147023 414.19240256 400.35149837 
386.47687424 373.86664677 362.70117865 353.16083257 345.13945984 338.53091175 333.15130466 328.81675495 325.36731382 
322.64303246 320.52570319 318.8971183 317.67997148 316.79695642 316.20374 315.85598907 315.73518228 315.82279825 
316.12071143 316.63079624 317.37017555 318.35597223 319.61296976 321.16595164 323.02412753 325.19670711 327.63483667 
330.28966253 332.89476605 335.18372863 423.10196296 410.69841749 396.97427042 383.21668786 370.71283595 359.64155588 
350.18168889 342.22798171 335.67518106 330.3409545 326.04296956 322.62262673 319.92132648 317.82185827 316.20701156 
315.00013218 314.12456594 313.53635368 313.19153626 313.07174855 313.15862543 313.45402552 313.95980742 314.69294958 
315.67043042 316.91682435 318.45670581 320.29920677 322.45345921 324.87102154 327.5034522 330.08657996 332.35623364 
419.02341926 406.7394393 393.14758784 379.52262321 367.13930372 356.17474663 346.8060692 338.92903276 332.43939864 
327.15659201 322.90003804 319.51266602 316.83740529 314.75817516 313.15889497 311.96364945 311.09652333 310.51398122 
310.17248772 310.05385471 310.13989413 310.43244667 310.93335303 311.65942798 312.62748626 313.86186543 315.38690301 
317.21164295 319.34512921 321.73938716 324.34644217 326.90466955 329.15244462 414.49509892 402.34387001 388.89890356 
375.42118178 363.17168687 352.32562203 343.05819043 335.26627989 328.84677823 323.62106206 319.410508 316.05974278 
313.41339317 311.35663296 309.77463594 308.59230724 307.73455203 307.15830536 306.82050231 306.70315136 306.78826097 
307.07765193 307.57314508 308.29137345 309.24897008 310.4700095 311.97856624 313.7835865 315.89401651 318.26240009 
320.84128106 323.37186209 325.5953458 409.54847563 397.54226062 384.25774765 370.94087026 358.83756198 348.12093509 
338.96410188 331.26518073 324.92229001 319.75893803 315.59863311 312.28785624 309.67308841 307.64087377 306.07775644 
304.90953777 304.06201909 303.4926494 303.15887773 303.04292725 303.12702115 303.4129585 303.90253839 304.61219535 
305.55836393 306.76483136 308.25538484 310.03886382 312.12410776 314.46422682 317.01233119 319.51271203 321.70966048 
404.21673005 392.36681909 379.25525181 366.11174145 354.16600123 343.58888977 334.55126566 326.95257364 320.69225844 
315.59612604 311.48998244 308.22230724 305.64158001 303.63582195 302.09305422 300.94004411 300.10355893 299.54160163 
299.2121752 299.09773424 299.18073335 299.4629482 299.94615444 300.64657267 301.58042347 302.77118438 304.24233295 
306.00259354 308.06069053 310.37034454 312.88527617 315.35310556 317.52145283 398.53424516 386.85092042 373.92367576 
360.96493706 349.18713024 338.75871197 329.84813891 322.35626942 316.18396183 311.15947094 307.11105157 303.88931339 
301.34486607 299.36730498 297.8462255 296.70942443 295.88469856 295.33064127 295.00584592 294.89301377 294.97484608 
295.25309355 295.72950687 296.42007861 297.34080132 298.5148225 299.96528964 301.70080446 303.7299687 306.00715355 
308.48673024 310.91986684 313.05773145 392.5361162 381.02863102 368.29594751 355.53224396 343.93169871 333.66023306 
324.88376835 317.50465504 311.42524359 306.47637367 302.48888493 299.31563543 296.80948325 294.86168539 293.36349887 
292.24380719 291.43149385 290.88577538 290.56586835 290.45473438 290.53533508 290.80939479 291.27863786 291.95881617 
292.86568157 294.02203317 295.45067009 297.1600646 299.15868895 301.40160109 303.84385898 306.24037573 308.34606446 
386.25768637 374.93425799 362.40522774 349.8456736 338.43067359 328.32349519 319.68740589 312.42631801 306.44414388 
301.57442879 297.65071805 294.52822318 292.06215572 290.14551196 288.67128824 287.5695055 286.77018472 286.23319476 
285.9184045 285.80904806 285.88835958 286.15803584 286.61977359 287.28907277 288.18143328 289.31928959 290.72507614 
292.40712969 294.37378698 296.58082481 298.98401993 301.34220552 303.41421477 379.73411716 368.60193201 356.28450659 
343.93707282 332.71486261 322.778386 314.28815302 307.14969884 301.26855863 296.48108896 292.62364641 289.55388786 
287.12947022 285.24519697 283.79587165 282.7126971 281.92687618 281.39895554 281.08948182 280.98197232 281.05994434 
281.32506599 281.77900538 282.43700065 283.31428994 284.43292881 285.8149728 287.46861786 289.40205997 291.57182277 
293.93442993 296.25278775 298.28980248 373 362.06523045 349.96623942 337.83777219 326.81457406 317.05430863 
308.71463948 301.702777 295.92593157 291.22336178 287.43432623 284.41900607 282.03758249 280.18672451 278.76310119 
277.69913541 276.92725005 276.40869143 276.10470585 275.9991029 276.07569218 276.33611222 276.78200156 277.42832809 
278.29005974 279.38886092 280.74639606 282.37071577 284.26987066 286.40115538 288.72186462 290.99910921 293 

von%20Mises%20stress 1 1089 double
271493376.98 235143029.51 198494737.08 163288626.47 131264824.43 103621385.69 81556364.982 64922962.926 53574380.154 
46749020.892 43685289.364 43051377.896 43515478.811 44481836.28 45354694.472 46022978.974 46375615.372 46418005.655 
46155551.812 45611530.521 44809218.461 43774496.367 42533244.973 41138725.616 39644199.631 38205930.682 36980182.433 
36308261.567 36531474.771 37839606.668 40422441.881 43886037.788 47836451.766 276394900.32 239388286.1 202078347.84 
166236628.46 133634670.83 105492159.29 83028778.161 66095077.773 54541608.444 47593024.601 44473980.668 43828624.604 
44301104.366 45284908.388 46173525.104 46853874.769 47212877.642 47256033.236 46988841.069 46434998.053 45618201.105 
44564798.207 43301137.343 41881441.426 40359933.369 38895698.009 37647820.182 36963768.502 37191011.583 38522760.406 
41152225.955 44678353.392 48700087.88 281143173.35 243500811.11 205549913.95 169092458.64 135930421.95 107304441.55 
84455155.085 67230545.448 55478595.515 48410639.812 45238012.863 44581570.029 45062166.666 46062871.76 46966754.295 
47658791.897 48023962.19 48067859.168 47796076.824 47232719.169 46401890.215 45330390.585 44045020.902 42600935.592 
41053289.08 39563899.17 38294583.666 37598780.452 37829927.412 39184554.758 41859192.704 45445896.569 49536721.671 
285713018.16 247458797.73 208891027.29 171840973.87 138139904.49 109048622.77 85827932.334 68323345.091 56380372.958 
49197531.09 45973334.642 45306221.651 45794630.151 46811601.217 47730175.921 48433462.256 48804568.214 48849178.715 
48572978.682 48000463.924 47156130.251 46067213.918 44760951.18 43293392.97 41720590.221 40206991.006 38917043.399 
38209930.244 38444834.384 39821480.535 42539593.413 46184597.396 50341916.86 290078841.99 251240079.81 212082976.44 
174466781.49 140250744.56 110714934.93 87139421.865 69367356.63 57241890.494 49949291.562 46675827.939 45998521.16 
46494392.762 47526903.605 48459514.545 49173547.412 49550324.037 49595616.207 49315195.713 48733932.671 47876697.198 
46771141.733 45444918.71 43954935.548 42358099.663 40821371.97 39511713.381 38793795.218 39032288.8 40429970.725 
43189617.594 46890318.882 51111164.063 294214919.77 254822376.62 215106953.23 176954409.24 142250504.3 112293559.49 
88381895.891 70356428.362 58058071.744 50661491.576 47341353.399 46654389.268 47157331.237 48204564.095 49150472.631 
49874686.508 50256835.387 50302773.354 50018354.495 49428803.537 48559345.206 47438026.221 46092893.3 44581665.272 
42962060.965 41403421.9 40075089.596 39346935.025 39588829.158 41006439.876 43805435.062 47558902.654 51839930.59 
298095706.93 258183563.77 217944281.48 179288493.45 144126833.11 113774746.79 89547680.846 71284451.741 58823875.937 
51329732.555 47965800.714 47269775.31 47779351.241 48840397.429 49798782.796 50532549.281 50919738.824 50966282.727 
50678112.294 50080784.974 49199858.215 48063748.68 46700873.033 45169711.433 43528744.037 41949546.033 40603692.609 
39865933.451 40111018.243 41547327.692 44383242.503 48186219.511 52523715.55 301696177.34 261301965.88 220576664.03 
181453982.26 145867631.07 115148945.08 90629258.902 72145442.199 59534364.616 51949705.198 48545142.993 47840710.829 
48356441.539 49430303.294 50400264.266 51142893.356 51534759.466 51581865.537 51290214.513 50685672.533 49794105.732 
48644273.998 47264937.217 45715281.885 44054494.497 42456222.566 41094113.606 40347443.618 40595488.603 42049146.137 
44919313.797 48768224.06 53158109.402 304992179.97 264156665.52 222986443.53 183436350.11 147461221.35 116406936.57 
91619375.112 72933624.433 60184772.002 52517250.887 49075494.157 48363366.138 48884731.157 49970324.752 50950882.457 
51701624.701 52097771.911 52145392.612 51850555.328 51239408.783 50338101.698 49175708.159 47781302.252 46214717.08 
44535785.744 42920052.842 41543062.969 40788235.681 41038990.533 42508529.14 45410053.115 49301012.364 53738856.794 
307960806.25 266727821.34 225156871.03 185221818.74 148896527.84 117539977.72 92511147.762 73643520.254 60770577.499 
53028424.947 49553168.048 48834108.567 49360548.267 50456708.433 51446810.348 52204859.905 52604862.994 52652947.208 
52355240.141 51738145.03 50828065.117 49654357.479 48246379.191 46664545.74 44969272.609 43337813.05 41947420.315 
41185245.953 41438441.515 42922283.803 45852049.618 49780881.326 54261921.295 310580759.02 268996987.68 227072375.73 
186797579.06 150163253.55 118539940.01 93298179.207 74270036.816 61287578.495 53479560.178 49974737.799 49249560.974 
49780479.32 50885964.983 51884490.114 52648988.719 53052394.803 53100888.091 52800648.303 52178303.304 51260480.956 
50076788.091 48656831.537 47061540.759 45351845.223 43706506.148 42304284.754 41535626.252 41790975.856 43287441.818 
46242132.389 50204388.33 54723550.4 312832713 270947426.71 228718828.46 188152007.94 151252054.86 119399447.5 
93974664.144 74808552.804 61731961.483 53867328.912 50337093.824 49606658.899 50141426.818 51254928.12 52260693.34 
53030735.159 53437066.254 53485911.156 53183494.394 52556636.906 51632159.627 50439884.06 49009631.708 47402773.822 
45680681.653 44023412.58 42611023.981 41836792.103 42093993.192 43601309.705 46577424.099 50568409.501 55120339.039 
314699655.98 272564404.02 230083791.24 189274873.47 152154706.5 120112007.12 94535492.129 75255000.049 62100369.413 
54188801.788 50637498.738 49902704.676 50440664.018 51560810.543 52572578.034 53347215.357 53755971.381 53805107.782 
53500886.239 52870287.75 51940293.317 50740902.412 49302114.509 47685667.114 45953297.734 44286138.305 42865320.763 
42086468.375 42345204.405 43861516.377 46855391.816 50870194.875 55449289.708 316167200.34 273835458.33 231156744.98 
190157522.27 152864252.18 120672127.53 94976341.128 75605937.995 62389963.143 54441501.367 50873637.463 50135416.824 
50675884.841 51801254.965 52817740.648 53595990.351 54006652.534 54056018.074 53750377.849 53116838.68 52182507.387 
50977523.342 49532025.914 47908040.512 46167592.544 44492658.621 43065215.356 42282730.932 42542673.531 44066056.547 
47073893.377 51107418.737 55707867.342 317223854.27 274750636.47 231929287.74 190793042.63 153375135.7 121075422.61 
95293759.012 75858618.574 62598474.966 54623448.849 51043660.884 50302973.057 50845247.358 51974378.551 52994261.404 
53775112.074 54187146.72 54236677.243 53930015.546 53294359.043 52356905.147 51147893.956 49697565.57 48068152.69 
46321888.017 44641356.343 43209142.459 42424042.914 42684854.26 44213328.534 47231217.775 51278223.471 55894047.113 
317861243.6 275302685.51 232395297 191176397.94 153683308.22 121318696.19 95485230.19 76011039.249 62724252.392 
54733202.271 51146221.534 50404045.463 50947409.34 52078809.267 53100741.343 53883160.955 54296023.491 54345653.535 
54038375.671 53401441.96 52462104.463 51250664.039 49797421.547 48164734.732 46414961.337 44731053.015 43295961.422 
42509284.398 42770619.785 44302165.181 47326118.186 51381255.422 56006353.513 318074276.28 275487195.17 232551049.85 
191304525.61 153786307.78 121400004.77 95549225.016 76061982.345 62766290.597 54769884.821 51180500.066 50437826.584 
50981554.628 52113712.826 53136329.807 53919273.802 54332413.041 54382076.347 54074592.544 53437231.955 52497264.908 
51285012.569 49830796.105 48197015.052 46446068.947 44761032.06 43324978.659 42537774.399 42799284.934 44331856.782 
47357836.46 51415691.475 56043889.337 317861243.6 275302685.51 232395297 191176397.94 153683308.22 121318696.19 
95485230.19 76011039.249 62724252.392 54733202.271 51146221.534 50404045.463 50947409.34 52078809.267 53100741.343 
53883160.955 54296023.491 54345653.535 54038375.671 53401441.96 52462104.463 51250664.039 49797421.547 48164734.732 
46414961.337 44731053.015 43295961.422 42509284.398 42770619.785 44302165.181 47326118.186 51381255.422 56006353.513 
317223854.27 274750636.47 231929287.74 190793042.63 153375135.7 121075422.61 95293759.012 75858618.574 62598474.966 
54623448.849 51043660.884 50302973.057 50845247.358 51974378.551 52994261.404 53775112.074 54187146.72 54236677.243 
53930015.546 53294359.043 52356905.147 51147893.956 49697565.57 48068152.69 46321888.017 44641356.343 43209142.459 
42424042.914 42684854.26 44213328.534 47231217.775 51278223.471 55894047.113 316167200.34 273835458.33 231156744.98 
190157522.27 152864252.18 120672127.53 94976341.128 75605937.995 62389963.143 54441501.367 50873637.463 50135416.824 
50675884.841 51801254.965 52817740.648 53595990.351 54006652.534 54056018.074 53750377.849 53116838.68 52182507.387 
50977523.342 49532025.914 47908040.512 46167592.544 44492658.621 43065215.356 42282730.932 42542673.531 44066056.547 
47073893.377 51107418.737 55707867.342 314699655.98 272564404.02 230083791.24 189274873.47 152154706.5 120112007.12 
94535492.129 75255000.049 62100369.413 54188801.788 50637498.738 49902704.676 50440664.018 51560810.543 52572578.034 
53347215.357 53755971.381 53805107.782 53500886.239 52870287.75 51940293.317 50740902.412 49302114.509 47685667.114 
45953297.734 44286138.305 42865320.763 42086468.375 42345204.405 43861516.377 46855391.816 50870194.875 55449289.708 
312832713 270947426.71 228718828.46 188152007.94 151252054.86 119399447.5 93974664.144 74808552.804 61731961.483 
53867328.912 50337093.824 49606658.899 50141426.818 51254928.12 52260693.34 53030735.159 53437066.254 53485911.156 
53183494.394 52556636.906 51632159.627 50439884.06 49009631.708 47402773.822 45680681.653 44023412.58 42611023.981 
41836792.103 42093993.192 43601309.705 46577424.099 50568409.501 55120339.039 310580759.02 268996987.68 227072375.73 
186797579.06 150163253.55 118539940.01 93298179.207 74270036.816 61287578.495 53479560.178 49974737.799 49249560.974 
49780479.32 50885964.983 51884490.114 52648988.719 53052394.803 53100888.091 52800648.303 52178303.304 51260480.956 
50076788.091 48656831.537 47061540.759 45351845.223 43706506.148 42304284.754 41535626.252 41790975.856 43287441.818 
46242132.389 50204388.33 54723550.4 307960806.25 266727821.34 225156871.03 185221818.74 148896527.84 117539977.72 
92511147.762 73643520.254 60770577.499 53028424.947 49553168.048 48834108.567 49360548.267 50456708.433 51446810.348 
52204859.905 52604862.994 52652947.208 52355240.141 51738145.03 50828065.117 49654357.479 48246379.191 46664545.74 
44969272.609 43337813.05 41947420.315 41185245.953 41438441.515 42922283.803 45852049.618 49780881.326 54261921.295 
304992179.97 264156665.52 222986443.53 183436350.11 147461221.35 116406936.57 91619375.112 72933624.433 60184772.002 
52517250.887 49075494.157 48363366.138 48884731.157 49970324.752 50950882.457 51701624.701 52097771.911 52145392.612 
51850555.328 51239408.783 50338101.698 49175708.159 47781302.252 46214717.08 44535785.744 42920052.842 41543062.969 
40788235.681 41038990.533 42508529.14 45410053.115 49301012.364 53738856.794 301696177.34 261301965.88 220576664.03 
181453982.26 145867631.07 115148945.08 90629258.902 72145442.199 59534364.616 51949705.198 48545142.993 47840710.829 
48356441.539 49430303.294 50400264.266 51142893.356 51534759.466 51581865.537 51290214.513 50685672.533 49794105.732 
48644273.998 47264937.217 45715281.885 44054494.497 42456222.566 41094113.606 40347443.618 40595488.603 42049146.137 
44919313.797 48768224.06 53158109.402 298095706.93 258183563.77 217944281.48 179288493.45 144126833.11 113774746.79 
89547680.846 71284451.741 58823875.937 51329732.555 47965800.714 47269775.31 47779351.241 48840397.429 49798782.796 
50532549.281 50919738.824 50966282.727 50678112.294 50080784.974 49199858.215 48063748.68 46700873.033 45169711.433 
43528744.037 41949546.033 40603692.609 39865933.451 40111018.243 41547327.692 44383242.503 48186219.511 52523715.55 
294214919.77 254822376.62 215106953.23 176954409.24 142250504.3 112293559.49 88381895.891 70356428.362 58058071.744 
50661491.576 47341353.399 46654389.268 47157331.237 48204564.095 49150472.631 49874686.508 50256835.387 50302773.354 
50018354.495 49428803.537 48559345.206 47438026.221 46092893.3 44581665.272 42962060.965 41403421.9 40075089.596 
39346935.025 39588829.158 41006439.876 43805435.062 47558902.654 51839930.59 290078841.99 251240079.81 212082976.44 
174466781.49 140250744.56 110714934.93 87139421.865 69367356.63 57241890.494 49949291.562 46675827.939 45998521.16 
46494392.762 47526903.605 48459514.545 49173547.412 49550324.037 49595616.207 49315195.713 48733932.671 47876697.198 
46771141.733 45444918.71 43954935.548 42358099.663 40821371.97 39511713.381 38793795.218 39032288.8 40429970.725 
43189617.594 46890318.882 51111164.063 285713018.16 247458797.73 208891027.29 171840973.87 138139904.49 109048622.77 
85827932.334 68323345.091 56380372.958 49197531.09 45973334.642 45306221.651 45794630.151 46811601.217 47730175.921 
48433462.256 48804568.214 48849178.715 48572978.682 48000463.924 47156130.251 46067213.918 44760951.18 43293392.97 
41720590.221 40206991.006 38917043.399 38209930.244 38444834.384 39821480.535 42539593.413 46184597.396 50341916.86 
281143173.35 243500811.11 205549913.95 169092458.64 135930421.95 107304441.55 84455155.085 67230545.448 55478595.515 
48410639.812 45238012.863 44581570.029 45062166.666 46062871.76 46966754.295 47658791.897 48023962.19 48067859.168 
47796076.824 47232719.169 46401890.215 45330390.585 44045020.902 42600935.592 41053289.08 39563899.17 38294583.666 
37598780.452 37829927.412 39184554.758 41859192.704 45445896.569 49536721.671 276394900.32 239388286.1 202078347.84 
166236628.46 133634670.83 105492159.29 83028778.161 66095077.773 54541608.444 47593024.601 44473980.668 43828624.604 
44301104.366 45284908.388 46173525.104 46853874.769 47212877.642 47256033.236 46988841.069 46434998.053 45618201.105 
44564798.207 43301137.343 41881441.426 40359933.369 38895698.009 37647820.182 36963768.502 37191011.583 38522760.406 
41152225.955 44678353.392 48700087.88 271493376.98 235143029.51 198494737.08 163288626.47 131264824.43 103621385.69 
81556364.982 64922962.926 53574380.154 46749020.892 43685289.364 43051377.896 43515478.811 44481836.28 45354694.472 
46022978.974 46375615.372 46418005.655 46155551.812 45611530.521 44809218.461 43774496.367 42533244.973 41138725.616 
39644199.631 38205930.682 36980182.433 36308261.567 36531474.771 37839606.668 40422441.881 43886037.788 47836451.766 

