# vtk DataFile Version 4.2
vtk output
ASCII
DATASET UNSTRUCTURED_GRID
POINTS 289 double
0.03 0 0 0.030625 0 0 0.03125 0 0 
0.031875 0 0 0.0325 0 0 0.033125 0 0 
0.03375 0 0 0.034375 0 0 0.035 0 0 
0.035625 0 0 0.03625 0 0 0.036875 0 0 
0.0375 0 0 0.038125 0 0 0.03875 0 0 
0.039375 0 0 0.04 0 0 0.029878647258 0.0026956331369 0 
0.030501119076 0.0027517921606 0 0.031123590894 0.0028079511843 0 0.031746062712 0.002864110208 0 
0.03236853453 0.0029202692317 0 0.032991006348 0.0029764282554 0 0.033613478166 0.003032587279 0 
0.034235949984 0.0030887463027 0 0.034858421801 0.0031449053264 0 0.035480893619 0.0032010643501 0 
0.036103365437 0.0032572233738 0 0.036725837255 0.0033133823975 0 0.037348309073 0.0033695414212 0 
0.037970780891 0.0034257004448 0 0.038593252709 0.0034818594685 0 0.039215724527 0.0035380184922 0 
0.039838196345 0.0035941775159 0 0.029499161052 0.0054588915724 0 0.030113726908 0.0055726184801 0 
0.030728292763 0.0056863453879 0 0.031342858618 0.0058000722956 0 0.031957424474 0.0059137992034 0 
0.032571990329 0.0060275261112 0 0.033186556184 0.0061412530189 0 0.033801122039 0.0062549799267 0 
0.034415687895 0.0063687068344 0 0.03503025375 0.0064824337422 0 0.035644819605 0.0065961606499 0 
0.03625938546 0.0067098875577 0 0.036873951316 0.0068236144655 0 0.037488517171 0.0069373413732 0 
0.038103083026 0.007051068281 0 0.038717648881 0.0071647951887 0 0.039332214737 0.0072785220965 0 
0.028841968746 0.0082547464454 0 0.029442843094 0.0084267203296 0 0.030043717443 0.0085986942139 0 
0.030644591792 0.0087706680982 0 0.031245466141 0.0089426419825 0 0.03184634049 0.0091146158668 0 
0.032447214839 0.009286589751 0 0.033048089188 0.0094585636353 0 0.033648963537 0.0096305375196 0 
0.034249837885 0.0098025114039 0 0.034850712234 0.0099744852881 0 0.035451586583 0.010146459172 0 
0.036052460932 0.010318433057 0 0.036653335281 0.010490406941 0 0.03725420963 0.010662380825 0 
0.037855083979 0.01083435471 0 0.038455958327 0.011006328594 0 0.027893649032 0.011042841287 0 
0.02847476672 0.01127290048 0 0.029055884408 0.011502959674 0 0.029637002096 0.011733018867 0 
0.030218119785 0.011963078061 0 0.030799237473 0.012193137254 0 0.031380355161 0.012423196448 0 
0.031961472849 0.012653255641 0 0.032542590537 0.012883314835 0 0.033123708225 0.013113374028 0 
0.033704825914 0.013343433222 0 0.034285943602 0.013573492415 0 0.03486706129 0.013803551609 0 
0.035448178978 0.014033610802 0 0.036029296666 0.014263669996 0 0.036610414354 0.014493729189 0 
0.037191532042 0.014723788382 0 0.026648520205 0.013778837792 0 0.027203697709 0.014065896912 0 
0.027758875213 0.014352956033 0 0.028314052718 0.014640015154 0 0.028869230222 0.014927074274 0 
0.029424407726 0.015214133395 0 0.029979585231 0.015501192516 0 0.030534762735 0.015788251636 0 
0.031089940239 0.016075310757 0 0.031645117743 0.016362369878 0 0.032200295248 0.016649428998 0 
0.032755472752 0.016936488119 0 0.033310650256 0.01722354724 0 0.03386582776 0.01751060636 0 
0.034421005265 0.017797665481 0 0.034976182769 0.018084724602 0 0.035531360273 0.018371783722 0 
0.025109865337 0.016416292602 0 0.025632987531 0.016758298697 0 0.026156109726 0.017100304793 0 
0.02667923192 0.017442310889 0 0.027202354115 0.017784316985 0 0.027725476309 0.018126323081 0 
0.028248598504 0.018468329177 0 0.028771720698 0.018810335273 0 0.029294842893 0.019152341368 0 
0.029817965087 0.019494347464 0 0.030341087282 0.01983635356 0 0.030864209476 0.020178359656 0 
0.031387331671 0.020520365752 0 0.031910453865 0.020862371848 0 0.03243357606 0.021204377944 0 
0.032956698254 0.02154638404 0 0.033479820449 0.021888390135 0 0.023290595627 0.018908943792 0 
0.023775816369 0.019302880121 0 0.024261037112 0.01969681645 0 0.024746257854 0.020090752779 0 
0.025231478596 0.020484689108 0 0.025716699338 0.020878625437 0 0.026201920081 0.021272561766 0 
0.026687140823 0.021666498095 0 0.027172361565 0.022060434424 0 0.027657582307 0.022454370753 0 
0.02814280305 0.022848307082 0 0.028628023792 0.023242243411 0 0.029113244534 0.02363617974 0 
0.029598465276 0.024030116069 0 0.030083686019 0.024424052398 0 0.030568906761 0.024817988727 0 
0.031054127503 0.025211925056 0 0.021213203436 0.021213203436 0 0.021655145174 0.021655145174 0 
0.022097086912 0.022097086912 0 0.02253902865 0.02253902865 0 0.022980970389 0.022980970389 0 
0.023422912127 0.023422912127 0 0.023864853865 0.023864853865 0 0.024306795603 0.024306795603 0 
0.024748737342 0.024748737342 0 0.02519067908 0.02519067908 0 0.025632620818 0.025632620818 0 
0.026074562556 0.026074562556 0 0.026516504294 0.026516504294 0 0.026958446033 0.026958446033 0 
0.027400387771 0.027400387771 0 0.027842329509 0.027842329509 0 0.028284271247 0.028284271247 0 
0.018908943792 0.023290595627 0 0.019302880121 0.023775816369 0 0.01969681645 0.024261037112 0 
0.020090752779 0.024746257854 0 0.020484689108 0.025231478596 0 0.020878625437 0.025716699338 0 
0.021272561766 0.026201920081 0 0.021666498095 0.026687140823 0 0.022060434424 0.027172361565 0 
0.022454370753 0.027657582307 0 0.022848307082 0.02814280305 0 0.023242243411 0.028628023792 0 
0.02363617974 0.029113244534 0 0.024030116069 0.029598465276 0 0.024424052398 0.030083686019 0 
0.024817988727 0.030568906761 0 0.025211925056 0.031054127503 0 0.016416292602 0.025109865337 0 
0.016758298697 0.025632987531 0 0.017100304793 0.026156109726 0 0.017442310889 0.02667923192 0 
0.017784316985 0.027202354115 0 0.018126323081 0.027725476309 0 0.018468329177 0.028248598504 0 
0.018810335273 0.028771720698 0 0.019152341368 0.029294842893 0 0.019494347464 0.029817965087 0 
0.01983635356 0.030341087282 0 0.020178359656 0.030864209476 0 0.020520365752 0.031387331671 0 
0.020862371848 0.031910453865 0 0.021204377944 0.03243357606 0 0.02154638404 0.032956698254 0 
0.021888390135 0.033479820449 0 0.013778837792 0.026648520205 0 0.014065896912 0.027203697709 0 
0.014352956033 0.027758875213 0 0.014640015154 0.028314052718 0 0.014927074274 0.028869230222 0 
0.015214133395 0.029424407726 0 0.015501192516 0.029979585231 0 0.015788251636 0.030534762735 0 
0.016075310757 0.031089940239 0 0.016362369878 0.031645117743 0 0.016649428998 0.032200295248 0 
0.016936488119 0.032755472752 0 0.01722354724 0.033310650256 0 0.01751060636 0.03386582776 0 
0.017797665481 0.034421005265 0 0.018084724602 0.034976182769 0 0.018371783722 0.035531360273 0 
0.011042841287 0.027893649032 0 0.01127290048 0.02847476672 0 0.011502959674 0.029055884408 0 
0.011733018867 0.029637002096 0 0.011963078061 0.030218119785 0 0.012193137254 0.030799237473 0 
0.012423196448 0.031380355161 0 0.012653255641 0.031961472849 0 0.012883314835 0.032542590537 0 
0.013113374028 0.033123708225 0 0.013343433222 0.033704825914 0 0.013573492415 0.034285943602 0 
0.013803551609 0.03486706129 0 0.014033610802 0.035448178978 0 0.014263669996 0.036029296666 0 
0.014493729189 0.036610414354 0 0.014723788382 0.037191532042 0 0.0082547464454 0.028841968746 0 
0.0084267203296 0.029442843094 0 0.0085986942139 0.030043717443 0 0.0087706680982 0.030644591792 0 
0.0089426419825 0.031245466141 0 0.0091146158668 0.03184634049 0 0.009286589751 0.032447214839 0 
0.0094585636353 0.033048089188 0 0.0096305375196 0.033648963537 0 0.0098025114039 0.034249837885 0 
0.0099744852881 0.034850712234 0 0.010146459172 0.035451586583 0 0.010318433057 0.036052460932 0 
0.010490406941 0.036653335281 0 0.010662380825 0.03725420963 0 0.01083435471 0.037855083979 0 
0.011006328594 0.038455958327 0 0.0054588915724 0.029499161052 0 0.0055726184801 0.030113726908 0 
0.0056863453879 0.030728292763 0 0.0058000722956 0.031342858618 0 0.0059137992034 0.031957424474 0 
0.0060275261112 0.032571990329 0 0.0061412530189 0.033186556184 0 0.0062549799267 0.033801122039 0 
0.0063687068344 0.034415687895 0 0.0064824337422 0.03503025375 0 0.0065961606499 0.035644819605 0 
0.0067098875577 0.03625938546 0 0.0068236144655 0.036873951316 0 0.0069373413732 0.037488517171 0 
0.007051068281 0.038103083026 0 0.0071647951887 0.038717648881 0 0.0072785220965 0.039332214737 0 
0.0026956331369 0.029878647258 0 0.0027517921606 0.030501119076 0 0.0028079511843 0.031123590894 0 
0.002864110208 0.031746062712 0 0.0029202692317 0.03236853453 0 0.0029764282554 0.032991006348 0 
0.003032587279 0.033613478166 0 0.0030887463027 0.034235949984 0 0.0031449053264 0.034858421801 0 
0.0032010643501 0.035480893619 0 0.0032572233738 0.036103365437 0 0.0033133823975 0.036725837255 0 
0.0033695414212 0.037348309073 0 0.0034257004448 0.037970780891 0 0.0034818594685 0.038593252709 0 
0.0035380184922 0.039215724527 0 0.0035941775159 0.039838196345 0 4.9065389334e-18 0.03 0 
5.0598682751e-18 0.030625 0 5.2131976167e-18 0.03125 0 5.3665269584e-18 0.031875 0 
5.5198563001e-18 0.0325 0 5.6731856417e-18 0.033125 0 5.8265149834e-18 0.03375 0 
5.9798443251e-18 0.034375 0 6.1331736667e-18 0.035 0 6.2865030084e-18 0.035625 0 
6.4398323501e-18 0.03625 0 6.5931616917e-18 0.036875 0 6.7464910334e-18 0.0375 0 
6.8998203751e-18 0.038125 0 7.0531497167e-18 0.03875 0 7.2064790584e-18 0.039375 0 
7.3598084001e-18 0.04 0 
CELLS 256 1280
4 0 17 18 1 
4 1 18 19 2 
4 2 19 20 3 
4 3 20 21 4 
4 4 21 22 5 
4 5 22 23 6 
4 6 23 24 7 
4 7 24 25 8 
4 8 25 26 9 
4 9 26 27 10 
4 10 27 28 11 
4 11 28 29 12 
4 12 29 30 13 
4 13 30 31 14 
4 14 31 32 15 
4 15 32 33 16 
4 17 34 35 18 
4 18 35 36 19 
4 19 36 37 20 
4 20 37 38 21 
4 21 38 39 22 
4 22 39 40 23 
4 23 40 41 24 
4 24 41 42 25 
4 25 42 43 26 
4 26 43 44 27 
4 27 44 45 28 
4 28 45 46 29 
4 29 46 47 30 
4 30 47 48 31 
4 31 48 49 32 
4 32 49 50 33 
4 34 51 52 35 
4 35 52 53 36 
4 36 53 54 37 
4 37 54 55 38 
4 38 55 56 39 
4 39 56 57 40 
4 40 57 58 41 
4 41 58 59 42 
4 42 59 60 43 
4 43 60 61 44 
4 44 61 62 45 
4 45 62 63 46 
4 46 63 64 47 
4 47 64 65 48 
4 48 65 66 49 
4 49 66 67 50 
4 51 68 69 52 
4 52 69 70 53 
4 53 70 71 54 
4 54 71 72 55 
4 55 72 73 56 
4 56 73 74 57 
4 57 74 75 58 
4 58 75 76 59 
4 59 76 77 60 
4 60 77 78 61 
4 61 78 79 62 
4 62 79 80 63 
4 63 80 81 64 
4 64 81 82 65 
4 65 82 83 66 
4 66 83 84 67 
4 68 85 86 69 
4 69 86 87 70 
4 70 87 88 71 
4 71 88 89 72 
4 72 89 90 73 
4 73 90 91 74 
4 74 91 92 75 
4 75 92 93 76 
4 76 93 94 77 
4 77 94 95 78 
4 78 95 96 79 
4 79 96 97 80 
4 80 97 98 81 
4 81 98 99 82 
4 82 99 100 83 
4 83 100 101 84 
4 85 102 103 86 
4 86 103 104 87 
4 87 104 105 88 
4 88 105 106 89 
4 89 106 107 90 
4 90 107 108 91 
4 91 108 109 92 
4 92 109 110 93 
4 93 110 111 94 
4 94 111 112 95 
4 95 112 113 96 
4 96 113 114 97 
4 97 114 115 98 
4 98 115 116 99 
4 99 116 117 100 
4 100 117 118 101 
4 102 119 120 103 
4 103 120 121 104 
4 104 121 122 105 
4 105 122 123 106 
4 106 123 124 107 
4 107 124 125 108 
4 108 125 126 109 
4 109 126 127 110 
4 110 127 128 111 
4 111 128 129 112 
4 112 129 130 113 
4 113 130 131 114 
4 114 131 132 115 
4 115 132 133 116 
4 116 133 134 117 
4 117 134 135 118 
4 119 136 137 120 
4 120 137 138 121 
4 121 138 139 122 
4 122 139 140 123 
4 123 140 141 124 
4 124 141 142 125 
4 125 142 143 126 
4 126 143 144 127 
4 127 144 145 128 
4 128 145 146 129 
4 129 146 147 130 
4 130 147 148 131 
4 131 148 149 132 
4 132 149 150 133 
4 133 150 151 134 
4 134 151 152 135 
4 136 153 154 137 
4 137 154 155 138 
4 138 155 156 139 
4 139 156 157 140 
4 140 157 158 141 
4 141 158 159 142 
4 142 159 160 143 
4 143 160 161 144 
4 144 161 162 145 
4 145 162 163 146 
4 146 163 164 147 
4 147 164 165 148 
4 148 165 166 149 
4 149 166 167 150 
4 150 167 168 151 
4 151 168 169 152 
4 153 170 171 154 
4 154 171 172 155 
4 155 172 173 156 
4 156 173 174 157 
4 157 174 175 158 
4 158 175 176 159 
4 159 176 177 160 
4 160 177 178 161 
4 161 178 179 162 
4 162 179 180 163 
4 163 180 181 164 
4 164 181 182 165 
4 165 182 183 166 
4 166 183 184 167 
4 167 184 185 168 
4 168 185 186 169 
4 170 187 188 171 
4 171 188 189 172 
4 172 189 190 173 
4 173 190 191 174 
4 174 191 192 175 
4 175 192 193 176 
4 176 193 194 177 
4 177 194 195 178 
4 178 195 196 179 
4 179 196 197 180 
4 180 197 198 181 
4 181 198 199 182 
4 182 199 200 183 
4 183 200 201 184 
4 184 201 202 185 
4 185 202 203 186 
4 187 204 205 188 
4 188 205 206 189 
4 189 206 207 190 
4 190 207 208 191 
4 191 208 209 192 
4 192 209 210 193 
4 193 210 211 194 
4 194 211 212 195 
4 195 212 213 196 
4 196 213 214 197 
4 197 214 215 198 
4 198 215 216 199 
4 199 216 217 200 
4 200 217 218 201 
4 201 218 219 202 
4 202 219 220 203 
4 204 221 222 205 
4 205 222 223 206 
4 206 223 224 207 
4 207 224 225 208 
4 208 225 226 209 
4 209 226 227 210 
4 210 227 228 211 
4 211 228 229 212 
4 212 229 230 213 
4 213 230 231 214 
4 214 231 232 215 
4 215 232 233 216 
4 216 233 234 217 
4 217 234 235 218 
4 218 235 236 219 
4 219 236 237 220 
4 221 238 239 222 
4 222 239 240 223 
4 223 240 241 224 
4 224 241 242 225 
4 225 242 243 226 
4 226 243 244 227 
4 227 244 245 228 
4 228 245 246 229 
4 229 246 247 230 
4 230 247 248 231 
4 231 248 249 232 
4 232 249 250 233 
4 233 250 251 234 
4 234 251 252 235 
4 235 252 253 236 
4 236 253 254 237 
4 238 255 256 239 
4 239 256 257 240 
4 240 257 258 241 
4 241 258 259 242 
4 242 259 260 243 
4 243 260 261 244 
4 244 261 262 245 
4 245 262 263 246 
4 246 263 264 247 
4 247 264 265 248 
4 248 265 266 249 
4 249 266 267 250 
4 250 267 268 251 
4 251 268 269 252 
4 252 269 270 253 
4 253 270 271 254 
4 255 272 273 256 
4 256 273 274 257 
4 257 274 275 258 
4 258 275 276 259 
4 259 276 277 260 
4 260 277 278 261 
4 261 278 279 262 
4 262 279 280 263 
4 263 280 281 264 
4 264 281 282 265 
4 265 282 283 266 
4 266 283 284 267 
4 267 284 285 268 
4 268 285 286 269 
4 269 286 287 270 
4 270 287 288 271 

CELL_TYPES 256
9
9
9
9
9
9
9
9
9
9
9
9
9
9
9
9
9
9
9
9
9
9
9
9
9
9
9
9
9
9
9
9
9
9
9
9
9
9
9
9
9
9
9
9
9
9
9
9
9
9
9
9
9
9
9
9
9
9
9
9
9
9
9
9
9
9
9
9
9
9
9
9
9
9
9
9
9
9
9
9
9
9
9
9
9
9
9
9
9
9
9
9
9
9
9
9
9
9
9
9
9
9
9
9
9
9
9
9
9
9
9
9
9
9
9
9
9
9
9
9
9
9
9
9
9
9
9
9
9
9
9
9
9
9
9
9
9
9
9
9
9
9
9
9
9
9
9
9
9
9
9
9
9
9
9
9
9
9
9
9
9
9
9
9
9
9
9
9
9
9
9
9
9
9
9
9
9
9
9
9
9
9
9
9
9
9
9
9
9
9
9
9
9
9
9
9
9
9
9
9
9
9
9
9
9
9
9
9
9
9
9
9
9
9
9
9
9
9
9
9
9
9
9
9
9
9
9
9
9
9
9
9
9
9
9
9
9
9
9
9
9
9
9
9
9
9
9
9
9
9
9
9
9
9
9
9

POINT_DATA 289
FIELD FieldData 11
P1 1 289 double
0 1.255615695e-10 -7.5336941698e-10 4.3946549324e-09 -2.5614560177e-08 1.4929270613e-07 1.7927528697e-07 -1.7552746438e-07 -1.7552746427e-07 
1.7927528642e-07 1.4929270933e-07 -2.5614578845e-08 4.394763738e-09 -7.540035825e-10 1.29257757e-10 -2.15429595e-11 0 2.6901856889e-07 
2.6594030092e-07 2.8503158889e-07 1.5982619091e-07 -1.8199454534e-07 -1.5798418067e-07 5.4503371714e-08 -1.5770931157e-07 -1.8209183477e-07 1.5494170786e-07 
3.1651503135e-07 1.1247788765e-07 1.1109880833e-07 3.1882172573e-07 1.3763520299e-07 -6.7647491163e-08 2.6901856889e-07 -1.5864112001e-09 3.1432933898e-08 
-1.9155219302e-07 5.7012477393e-09 1.6536372762e-07 1.4359100134e-07 1.0774815847e-07 3.3525196961e-07 1.4405737341e-07 -5.0592350851e-08 1.7031822939e-07 
1.3125598115e-07 1.3374867327e-07 1.7307883201e-07 -6.3273759774e-08 1.9719504507e-07 -1.5864112001e-09 4.0092899104e-10 1.018278537e-07 5.445904876e-07 
1.0430226263e-07 -2.0581962425e-08 4.3491864442e-10 9.0672897772e-10 -2.7582298893e-08 1.2927869235e-07 3.9282754448e-07 -1.7069995699e-07 -5.3348880936e-07 
-1.0827657688e-07 1.2328662463e-08 3.2962534874e-08 -1.9842564952e-07 4.0092899104e-10 -1.1915517701e-10 -5.2944461474e-09 2.6035161184e-08 -1.7929312347e-07 
-1.4693503099e-07 -1.1961773313e-07 -3.1627946361e-07 -3.4272482584e-07 1.9245634033e-08 2.2095899684e-07 -1.8229645306e-07 -3.0138491242e-07 -3.4782845934e-07 
2.9076102613e-08 1.6154697776e-07 1.7168602043e-07 -1.1915517701e-10 9.3493858477e-11 2.335662464e-08 -1.4487119045e-07 -3.5700872252e-07 -1.1582351046e-07 
-1.5112425717e-07 -1.8041602869e-07 3.1576994357e-08 -4.5085243197e-09 1.9978657853e-09 -3.0131338049e-09 2.7307026183e-08 -1.498334036e-07 -3.1492778417e-07 
-3.5940622918e-07 5.7859352264e-08 9.3493858477e-11 -1.6928137877e-10 -3.573868193e-07 -2.9579171648e-07 -3.0440892098e-07 -3.1030583126e-07 -2.7035739528e-07 
-5.041691846e-07 -3.5790409734e-07 2.0938249009e-07 3.16062884e-07 3.3312590956e-07 1.2274345522e-07 1.4676432608e-07 2.1439053042e-07 -2.0925984609e-07 
-1.678725853e-07 -1.6928137877e-10 1.8722924178e-10 -1.7878554149e-07 -1.4795804823e-07 -1.5461689686e-07 -1.4612848208e-07 -1.8965380949e-07 6.3012916276e-08 
-1.7880969195e-07 -2.1023267921e-07 2.1065925206e-07 1.6850649488e-07 7.1083727209e-10 -1.7502430071e-07 -1.8128926682e-07 3.1412841023e-08 -4.786016921e-09 
1.8722924178e-10 3.0776938324e-07 3.079826104e-07 3.0790832021e-07 3.0799050193e-07 3.0786601707e-07 3.0883531917e-07 3.03144413e-07 3.3444067912e-07 
1.5423434987e-07 -2.6319384051e-08 3.707546533e-09 3.8132567007e-09 -2.4849843215e-08 1.478311335e-07 3.7026579938e-07 9.182877957e-08 3.0776938324e-07 
1.8579176462e-10 -1.7957156437e-07 -1.4827710611e-07 -1.5413725345e-07 -1.525361998e-07 -1.6003242169e-07 -1.1666347729e-07 -3.6399316964e-07 -1.4723786437e-07 
1.929669505e-08 2.6476761959e-08 -1.8049303777e-07 -1.758993447e-07 6.5095528387e-09 1.3911094101e-07 3.8578736674e-07 1.8579176462e-10 -1.6091195305e-10 
2.8585364937e-08 -1.7920479083e-07 -1.7542111489e-07 2.3141754805e-08 5.1661597738e-08 -3.1797722453e-07 -5.6495779925e-07 6.0535552367e-08 2.0636212206e-07 
-6.8131202375e-08 2.1577198412e-07 8.156614413e-11 -2.0792237806e-07 3.7657579036e-08 -3.3296690553e-09 -1.6091195305e-10 5.2169314847e-11 1.9148805432e-07 
5.2349197845e-08 -5.0696727695e-07 -6.1842963255e-07 -5.943283928e-07 -6.2768663855e-07 -4.5714049332e-07 -2.4349546508e-07 -4.7970799702e-07 -4.759043458e-07 
-2.7030105728e-07 -3.1195030418e-07 -2.7129804662e-07 -4.6881293099e-07 -5.2303366297e-07 5.2169314847e-11 6.6648787543e-11 1.858481419e-09 4.4186763672e-09 
-3.2025180056e-08 1.6968436877e-07 1.6941774795e-07 -2.9733516815e-08 2.6256290819e-09 -5.9233817759e-09 1.4316799804e-10 -3.234190069e-08 1.7455077249e-07 
1.7415302167e-07 -3.0605123672e-08 3.5364236877e-09 -3.9717008383e-09 6.6648787543e-11 -3.8388240324e-10 -3.9344683979e-07 7.0073965179e-08 -8.2033627553e-09 
-6.6657161751e-09 7.027837285e-08 -3.9697268045e-07 1.6140118572e-08 3.3216972083e-07 3.279303824e-07 3.1481817103e-08 -5.003994479e-07 -4.7683246611e-07 
-7.9641210706e-08 -1.8079317029e-07 3.3983674313e-08 -3.8388240324e-10 1.5812960649e-09 -3.2697134961e-07 -3.0196638071e-07 -1.1328221356e-07 -1.4388192898e-07 
-1.4648187996e-07 -8.3940119304e-08 -4.7637102512e-07 -4.3368823959e-07 -2.7505367587e-07 -1.5042429543e-07 4.4067463183e-08 -1.4845844907e-07 -3.0421836993e-07 
-2.7040582415e-07 -3.2975709784e-07 1.5812960649e-09 -2.6901702713e-07 1.9962755072e-07 1.2233846212e-07 1.2411609262e-07 1.8903660447e-07 -2.1276379845e-07 
-2.6957374803e-08 3.4012811436e-07 9.658664202e-08 1.0986677915e-07 2.8985059771e-07 2.8659523062e-07 1.3954290019e-07 -6.0137219921e-08 1.8301805297e-07 
1.136662203e-08 -2.6901702713e-07 0 1.255615695e-10 -7.5336941698e-10 4.3946549324e-09 -2.5614560177e-08 1.4929270613e-07 1.7927528697e-07 
-1.7552746438e-07 -1.7552746427e-07 1.7927528642e-07 1.4929270933e-07 -2.5614578845e-08 4.394763738e-09 -7.540035825e-10 1.29257757e-10 -2.15429595e-11 
0 
P2 1 289 double
0 1.255615695e-10 -7.5336941698e-10 4.3946549324e-09 -2.5614560177e-08 1.4929270613e-07 1.7927528697e-07 -1.7552746438e-07 -1.7552746427e-07 
1.7927528642e-07 1.4929270933e-07 -2.5614578845e-08 4.394763738e-09 -7.540035825e-10 1.29257757e-10 -2.15429595e-11 0 2.6901856889e-07 
2.6594030092e-07 2.8503158889e-07 1.5982619091e-07 -1.8199454534e-07 -1.5798418067e-07 5.4503371714e-08 -1.5770931157e-07 -1.8209183477e-07 1.5494170786e-07 
3.1651503135e-07 1.1247788765e-07 1.1109880833e-07 3.1882172573e-07 1.3763520299e-07 -6.7647491163e-08 2.6901856889e-07 -1.5864112001e-09 3.1432933898e-08 
-1.9155219302e-07 5.7012477393e-09 1.6536372762e-07 1.4359100134e-07 1.0774815847e-07 3.3525196961e-07 1.4405737341e-07 -5.0592350851e-08 1.7031822939e-07 
1.3125598115e-07 1.3374867327e-07 1.7307883201e-07 -6.3273759774e-08 1.9719504507e-07 -1.5864112001e-09 4.0092899104e-10 1.018278537e-07 5.445904876e-07 
1.0430226263e-07 -2.0581962425e-08 4.3491864442e-10 9.0672897772e-10 -2.7582298893e-08 1.2927869235e-07 3.9282754448e-07 -1.7069995699e-07 -5.3348880936e-07 
-1.0827657688e-07 1.2328662463e-08 3.2962534874e-08 -1.9842564952e-07 4.0092899104e-10 -1.1915517701e-10 -5.2944461474e-09 2.6035161184e-08 -1.7929312347e-07 
-1.4693503099e-07 -1.1961773313e-07 -3.1627946361e-07 -3.4272482584e-07 1.9245634033e-08 2.2095899684e-07 -1.8229645306e-07 -3.0138491242e-07 -3.4782845934e-07 
2.9076102613e-08 1.6154697776e-07 1.7168602043e-07 -1.1915517701e-10 9.3493858477e-11 2.335662464e-08 -1.4487119045e-07 -3.5700872252e-07 -1.1582351046e-07 
-1.5112425717e-07 -1.8041602869e-07 3.1576994357e-08 -4.5085243197e-09 1.9978657853e-09 -3.0131338049e-09 2.7307026183e-08 -1.498334036e-07 -3.1492778417e-07 
-3.5940622918e-07 5.7859352264e-08 9.3493858477e-11 -1.6928137877e-10 -3.573868193e-07 -2.9579171648e-07 -3.0440892098e-07 -3.1030583126e-07 -2.7035739528e-07 
-5.041691846e-07 -3.5790409734e-07 2.0938249009e-07 3.16062884e-07 3.3312590956e-07 1.2274345522e-07 1.4676432608e-07 2.1439053042e-07 -2.0925984609e-07 
-1.678725853e-07 -1.6928137877e-10 1.8722924178e-10 -1.7878554149e-07 -1.4795804823e-07 -1.5461689686e-07 -1.4612848208e-07 -1.8965380949e-07 6.3012916276e-08 
-1.7880969195e-07 -2.1023267921e-07 2.1065925206e-07 1.6850649488e-07 7.1083727209e-10 -1.7502430071e-07 -1.8128926682e-07 3.1412841023e-08 -4.786016921e-09 
1.8722924178e-10 3.0776938324e-07 3.079826104e-07 3.0790832021e-07 3.0799050193e-07 3.0786601707e-07 3.0883531917e-07 3.03144413e-07 3.3444067912e-07 
1.5423434987e-07 -2.6319384051e-08 3.707546533e-09 3.8132567007e-09 -2.4849843215e-08 1.478311335e-07 3.7026579938e-07 9.182877957e-08 3.0776938324e-07 
1.8579176462e-10 -1.7957156437e-07 -1.4827710611e-07 -1.5413725345e-07 -1.525361998e-07 -1.6003242169e-07 -1.1666347729e-07 -3.6399316964e-07 -1.4723786437e-07 
1.929669505e-08 2.6476761959e-08 -1.8049303777e-07 -1.758993447e-07 6.5095528387e-09 1.3911094101e-07 3.8578736674e-07 1.8579176462e-10 -1.6091195305e-10 
2.8585364937e-08 -1.7920479083e-07 -1.7542111489e-07 2.3141754805e-08 5.1661597738e-08 -3.1797722453e-07 -5.6495779925e-07 6.0535552367e-08 2.0636212206e-07 
-6.8131202375e-08 2.1577198412e-07 8.156614413e-11 -2.0792237806e-07 3.7657579036e-08 -3.3296690553e-09 -1.6091195305e-10 5.2169314847e-11 1.9148805432e-07 
5.2349197845e-08 -5.0696727695e-07 -6.1842963255e-07 -5.943283928e-07 -6.2768663855e-07 -4.5714049332e-07 -2.4349546508e-07 -4.7970799702e-07 -4.759043458e-07 
-2.7030105728e-07 -3.1195030418e-07 -2.7129804662e-07 -4.6881293099e-07 -5.2303366297e-07 5.2169314847e-11 6.6648787543e-11 1.858481419e-09 4.4186763672e-09 
-3.2025180056e-08 1.6968436877e-07 1.6941774795e-07 -2.9733516815e-08 2.6256290819e-09 -5.9233817759e-09 1.4316799804e-10 -3.234190069e-08 1.7455077249e-07 
1.7415302167e-07 -3.0605123672e-08 3.5364236877e-09 -3.9717008383e-09 6.6648787543e-11 -3.8388240324e-10 -3.9344683979e-07 7.0073965179e-08 -8.2033627553e-09 
-6.6657161751e-09 7.027837285e-08 -3.9697268045e-07 1.6140118572e-08 3.3216972083e-07 3.279303824e-07 3.1481817103e-08 -5.003994479e-07 -4.7683246611e-07 
-7.9641210706e-08 -1.8079317029e-07 3.3983674313e-08 -3.8388240324e-10 1.5812960649e-09 -3.2697134961e-07 -3.0196638071e-07 -1.1328221356e-07 -1.4388192898e-07 
-1.4648187996e-07 -8.3940119304e-08 -4.7637102512e-07 -4.3368823959e-07 -2.7505367587e-07 -1.5042429543e-07 4.4067463183e-08 -1.4845844907e-07 -3.0421836993e-07 
-2.7040582415e-07 -3.2975709784e-07 1.5812960649e-09 -2.6901702713e-07 1.9962755072e-07 1.2233846212e-07 1.2411609262e-07 1.8903660447e-07 -2.1276379845e-07 
-2.6957374803e-08 3.4012811436e-07 9.658664202e-08 1.0986677915e-07 2.8985059771e-07 2.8659523062e-07 1.3954290019e-07 -6.0137219921e-08 1.8301805297e-07 
1.136662203e-08 -2.6901702713e-07 0 1.255615695e-10 -7.5336941698e-10 4.3946549324e-09 -2.5614560177e-08 1.4929270613e-07 1.7927528697e-07 
-1.7552746438e-07 -1.7552746427e-07 1.7927528642e-07 1.4929270933e-07 -2.5614578845e-08 4.394763738e-09 -7.540035825e-10 1.29257757e-10 -2.15429595e-11 
0 
displacement 3 289 double
0 0 0 0 0 0 0 0 0 
0 0 0 0 0 0 0 0 0 
0 0 0 0 0 0 0 0 0 
0 0 0 0 0 0 0 0 0 
0 0 0 0 0 0 0 0 0 
0 0 0 0 0 0 0 0 0 
0 0 0 0 0 0 0 0 0 
0 0 0 0 0 0 0 0 0 
0 0 0 0 0 0 0 0 0 
0 0 0 0 0 0 0 0 0 
0 0 0 0 0 0 0 0 0 
0 0 0 0 0 0 0 0 0 
0 0 0 0 0 0 0 0 0 
0 0 0 0 0 0 0 0 0 
0 0 0 0 0 0 0 0 0 
0 0 0 0 0 0 0 0 0 
0 0 0 0 0 0 0 0 0 
0 0 0 0 0 0 0 0 0 
0 0 0 0 0 0 0 0 0 
0 0 0 0 0 0 0 0 0 
0 0 0 0 0 0 0 0 0 
0 0 0 0 0 0 0 0 0 
0 0 0 0 0 0 0 0 0 
0 0 0 0 0 0 0 0 0 
0 0 0 0 0 0 0 0 0 
0 0 0 0 0 0 0 0 0 
0 0 0 0 0 0 0 0 0 
0 0 0 0 0 0 0 0 0 
0 0 0 0 0 0 0 0 0 
0 0 0 0 0 0 0 0 0 
0 0 0 0 0 0 0 0 0 
0 0 0 0 0 0 0 0 0 
0 0 0 0 0 0 0 0 0 
0 0 0 0 0 0 0 0 0 
0 0 0 0 0 0 0 0 0 
0 0 0 0 0 0 0 0 0 
0 0 0 0 0 0 0 0 0 
0 0 0 0 0 0 0 0 0 
0 0 0 0 0 0 0 0 0 
0 0 0 0 0 0 0 0 0 
0 0 0 0 0 0 0 0 0 
0 0 0 0 0 0 0 0 0 
0 0 0 0 0 0 0 0 0 
0 0 0 0 0 0 0 0 0 
0 0 0 0 0 0 0 0 0 
0 0 0 0 0 0 0 0 0 
0 0 0 0 0 0 0 0 0 
0 0 0 0 0 0 0 0 0 
0 0 0 0 0 0 0 0 0 
0 0 0 0 0 0 0 0 0 
0 0 0 0 0 0 0 0 0 
0 0 0 0 0 0 0 0 0 
0 0 0 0 0 0 0 0 0 
0 0 0 0 0 0 0 0 0 
0 0 0 0 0 0 0 0 0 
0 0 0 0 0 0 0 0 0 
0 0 0 0 0 0 0 0 0 
0 0 0 0 0 0 0 0 0 
0 0 0 0 0 0 0 0 0 
0 0 0 0 0 0 0 0 0 
0 0 0 0 0 0 0 0 0 
0 0 0 0 0 0 0 0 0 
0 0 0 0 0 0 0 0 0 
0 0 0 0 0 0 0 0 0 
0 0 0 0 0 0 0 0 0 
0 0 0 0 0 0 0 0 0 
0 0 0 0 0 0 0 0 0 
0 0 0 0 0 0 0 0 0 
0 0 0 0 0 0 0 0 0 
0 0 0 0 0 0 0 0 0 
0 0 0 0 0 0 0 0 0 
0 0 0 0 0 0 0 0 0 
0 0 0 0 0 0 0 0 0 
0 0 0 0 0 0 0 0 0 
0 0 0 0 0 0 0 0 0 
0 0 0 0 0 0 0 0 0 
0 0 0 0 0 0 0 0 0 
0 0 0 0 0 0 0 0 0 
0 0 0 0 0 0 0 0 0 
0 0 0 0 0 0 0 0 0 
0 0 0 0 0 0 0 0 0 
0 0 0 0 0 0 0 0 0 
0 0 0 0 0 0 0 0 0 
0 0 0 0 0 0 0 0 0 
0 0 0 0 0 0 0 0 0 
0 0 0 0 0 0 0 0 0 
0 0 0 0 0 0 0 0 0 
0 0 0 0 0 0 0 0 0 
0 0 0 0 0 0 0 0 0 
0 0 0 0 0 0 0 0 0 
0 0 0 0 0 0 0 0 0 
0 0 0 0 0 0 0 0 0 
0 0 0 0 0 0 0 0 0 
0 0 0 0 0 0 0 0 0 
0 0 0 0 0 0 0 0 0 
0 0 0 0 0 0 0 0 0 
0 0 0 
displacement_x 1 289 double
0 0 0 0 0 0 0 0 0 
0 0 0 0 0 0 0 0 0 
0 0 0 0 0 0 0 0 0 
0 0 0 0 0 0 0 0 0 
0 0 0 0 0 0 0 0 0 
0 0 0 0 0 0 0 0 0 
0 0 0 0 0 0 0 0 0 
0 0 0 0 0 0 0 0 0 
0 0 0 0 0 0 0 0 0 
0 0 0 0 0 0 0 0 0 
0 0 0 0 0 0 0 0 0 
0 0 0 0 0 0 0 0 0 
0 0 0 0 0 0 0 0 0 
0 0 0 0 0 0 0 0 0 
0 0 0 0 0 0 0 0 0 
0 0 0 0 0 0 0 0 0 
0 0 0 0 0 0 0 0 0 
0 0 0 0 0 0 0 0 0 
0 0 0 0 0 0 0 0 0 
0 0 0 0 0 0 0 0 0 
0 0 0 0 0 0 0 0 0 
0 0 0 0 0 0 0 0 0 
0 0 0 0 0 0 0 0 0 
0 0 0 0 0 0 0 0 0 
0 0 0 0 0 0 0 0 0 
0 0 0 0 0 0 0 0 0 
0 0 0 0 0 0 0 0 0 
0 0 0 0 0 0 0 0 0 
0 0 0 0 0 0 0 0 0 
0 0 0 0 0 0 0 0 0 
0 0 0 0 0 0 0 0 0 
0 0 0 0 0 0 0 0 0 
0 
displacement_y 1 289 double
0 0 0 0 0 0 0 0 0 
0 0 0 0 0 0 0 0 0 
0 0 0 0 0 0 0 0 0 
0 0 0 0 0 0 0 0 0 
0 0 0 0 0 0 0 0 0 
0 0 0 0 0 0 0 0 0 
0 0 0 0 0 0 0 0 0 
0 0 0 0 0 0 0 0 0 
0 0 0 0 0 0 0 0 0 
0 0 0 0 0 0 0 0 0 
0 0 0 0 0 0 0 0 0 
0 0 0 0 0 0 0 0 0 
0 0 0 0 0 0 0 0 0 
0 0 0 0 0 0 0 0 0 
0 0 0 0 0 0 0 0 0 
0 0 0 0 0 0 0 0 0 
0 0 0 0 0 0 0 0 0 
0 0 0 0 0 0 0 0 0 
0 0 0 0 0 0 0 0 0 
0 0 0 0 0 0 0 0 0 
0 0 0 0 0 0 0 0 0 
0 0 0 0 0 0 0 0 0 
0 0 0 0 0 0 0 0 0 
0 0 0 0 0 0 0 0 0 
0 0 0 0 0 0 0 0 0 
0 0 0 0 0 0 0 0 0 
0 0 0 0 0 0 0 0 0 
0 0 0 0 0 0 0 0 0 
0 0 0 0 0 0 0 0 0 
0 0 0 0 0 0 0 0 0 
0 0 0 0 0 0 0 0 0 
0 0 0 0 0 0 0 0 0 
0 
s_xx 1 289 double
0 1.255615695e-10 -7.5336941698e-10 4.3946549324e-09 -2.5614560177e-08 1.4929270613e-07 1.7927528697e-07 -1.7552746438e-07 -1.7552746427e-07 
1.7927528642e-07 1.4929270933e-07 -2.5614578845e-08 4.394763738e-09 -7.540035825e-10 1.29257757e-10 -2.15429595e-11 0 2.6901856889e-07 
2.6594030092e-07 2.8503158889e-07 1.5982619091e-07 -1.8199454534e-07 -1.5798418067e-07 5.4503371714e-08 -1.5770931157e-07 -1.8209183477e-07 1.5494170786e-07 
3.1651503135e-07 1.1247788765e-07 1.1109880833e-07 3.1882172573e-07 1.3763520299e-07 -6.7647491163e-08 2.6901856889e-07 -1.5864112001e-09 3.1432933898e-08 
-1.9155219302e-07 5.7012477393e-09 1.6536372762e-07 1.4359100134e-07 1.0774815847e-07 3.3525196961e-07 1.4405737341e-07 -5.0592350851e-08 1.7031822939e-07 
1.3125598115e-07 1.3374867327e-07 1.7307883201e-07 -6.3273759774e-08 1.9719504507e-07 -1.5864112001e-09 4.0092899104e-10 1.018278537e-07 5.445904876e-07 
1.0430226263e-07 -2.0581962425e-08 4.3491864442e-10 9.0672897772e-10 -2.7582298893e-08 1.2927869235e-07 3.9282754448e-07 -1.7069995699e-07 -5.3348880936e-07 
-1.0827657688e-07 1.2328662463e-08 3.2962534874e-08 -1.9842564952e-07 4.0092899104e-10 -1.1915517701e-10 -5.2944461474e-09 2.6035161184e-08 -1.7929312347e-07 
-1.4693503099e-07 -1.1961773313e-07 -3.1627946361e-07 -3.4272482584e-07 1.9245634033e-08 2.2095899684e-07 -1.8229645306e-07 -3.0138491242e-07 -3.4782845934e-07 
2.9076102613e-08 1.6154697776e-07 1.7168602043e-07 -1.1915517701e-10 9.3493858477e-11 2.335662464e-08 -1.4487119045e-07 -3.5700872252e-07 -1.1582351046e-07 
-1.5112425717e-07 -1.8041602869e-07 3.1576994357e-08 -4.5085243197e-09 1.9978657853e-09 -3.0131338049e-09 2.7307026183e-08 -1.498334036e-07 -3.1492778417e-07 
-3.5940622918e-07 5.7859352264e-08 9.3493858477e-11 -1.6928137877e-10 -3.573868193e-07 -2.9579171648e-07 -3.0440892098e-07 -3.1030583126e-07 -2.7035739528e-07 
-5.041691846e-07 -3.5790409734e-07 2.0938249009e-07 3.16062884e-07 3.3312590956e-07 1.2274345522e-07 1.4676432608e-07 2.1439053042e-07 -2.0925984609e-07 
-1.678725853e-07 -1.6928137877e-10 1.8722924178e-10 -1.7878554149e-07 -1.4795804823e-07 -1.5461689686e-07 -1.4612848208e-07 -1.8965380949e-07 6.3012916276e-08 
-1.7880969195e-07 -2.1023267921e-07 2.1065925206e-07 1.6850649488e-07 7.1083727209e-10 -1.7502430071e-07 -1.8128926682e-07 3.1412841023e-08 -4.786016921e-09 
1.8722924178e-10 3.0776938324e-07 3.079826104e-07 3.0790832021e-07 3.0799050193e-07 3.0786601707e-07 3.0883531917e-07 3.03144413e-07 3.3444067912e-07 
1.5423434987e-07 -2.6319384051e-08 3.707546533e-09 3.8132567007e-09 -2.4849843215e-08 1.478311335e-07 3.7026579938e-07 9.182877957e-08 3.0776938324e-07 
1.8579176462e-10 -1.7957156437e-07 -1.4827710611e-07 -1.5413725345e-07 -1.525361998e-07 -1.6003242169e-07 -1.1666347729e-07 -3.6399316964e-07 -1.4723786437e-07 
1.929669505e-08 2.6476761959e-08 -1.8049303777e-07 -1.758993447e-07 6.5095528387e-09 1.3911094101e-07 3.8578736674e-07 1.8579176462e-10 -1.6091195305e-10 
2.8585364937e-08 -1.7920479083e-07 -1.7542111489e-07 2.3141754805e-08 5.1661597738e-08 -3.1797722453e-07 -5.6495779925e-07 6.0535552367e-08 2.0636212206e-07 
-6.8131202375e-08 2.1577198412e-07 8.156614413e-11 -2.0792237806e-07 3.7657579036e-08 -3.3296690553e-09 -1.6091195305e-10 5.2169314847e-11 1.9148805432e-07 
5.2349197845e-08 -5.0696727695e-07 -6.1842963255e-07 -5.943283928e-07 -6.2768663855e-07 -4.5714049332e-07 -2.4349546508e-07 -4.7970799702e-07 -4.759043458e-07 
-2.7030105728e-07 -3.1195030418e-07 -2.7129804662e-07 -4.6881293099e-07 -5.2303366297e-07 5.2169314847e-11 6.6648787543e-11 1.858481419e-09 4.4186763672e-09 
-3.2025180056e-08 1.6968436877e-07 1.6941774795e-07 -2.9733516815e-08 2.6256290819e-09 -5.9233817759e-09 1.4316799804e-10 -3.234190069e-08 1.7455077249e-07 
1.7415302167e-07 -3.0605123672e-08 3.5364236877e-09 -3.9717008383e-09 6.6648787543e-11 -3.8388240324e-10 -3.9344683979e-07 7.0073965179e-08 -8.2033627553e-09 
-6.6657161751e-09 7.027837285e-08 -3.9697268045e-07 1.6140118572e-08 3.3216972083e-07 3.279303824e-07 3.1481817103e-08 -5.003994479e-07 -4.7683246611e-07 
-7.9641210706e-08 -1.8079317029e-07 3.3983674313e-08 -3.8388240324e-10 1.5812960649e-09 -3.2697134961e-07 -3.0196638071e-07 -1.1328221356e-07 -1.4388192898e-07 
-1.4648187996e-07 -8.3940119304e-08 -4.7637102512e-07 -4.3368823959e-07 -2.7505367587e-07 -1.5042429543e-07 4.4067463183e-08 -1.4845844907e-07 -3.0421836993e-07 
-2.7040582415e-07 -3.2975709784e-07 1.5812960649e-09 -2.6901702713e-07 1.9962755072e-07 1.2233846212e-07 1.2411609262e-07 1.8903660447e-07 -2.1276379845e-07 
-2.6957374803e-08 3.4012811436e-07 9.658664202e-08 1.0986677915e-07 2.8985059771e-07 2.8659523062e-07 1.3954290019e-07 -6.0137219921e-08 1.8301805297e-07 
1.136662203e-08 -2.6901702713e-07 0 1.255615695e-10 -7.5336941698e-10 4.3946549324e-09 -2.5614560177e-08 1.4929270613e-07 1.7927528697e-07 
-1.7552746438e-07 -1.7552746427e-07 1.7927528642e-07 1.4929270933e-07 -2.5614578845e-08 4.394763738e-09 -7.540035825e-10 1.29257757e-10 -2.15429595e-11 
0 
s_xy 1 289 double
0 0 0 0 0 0 0 0 0 
0 0 0 0 0 0 0 0 0 
0 0 0 0 0 0 0 0 0 
0 0 0 0 0 0 0 0 0 
0 0 0 0 0 0 0 0 0 
0 0 0 0 0 0 0 0 0 
0 0 0 0 0 0 0 0 0 
0 0 0 0 0 0 0 0 0 
0 0 0 0 0 0 0 0 0 
0 0 0 0 0 0 0 0 0 
0 0 0 0 0 0 0 0 0 
0 0 0 0 0 0 0 0 0 
0 0 0 0 0 0 0 0 0 
0 0 0 0 0 0 0 0 0 
0 0 0 0 0 0 0 0 0 
0 0 0 0 0 0 0 0 0 
0 0 0 0 0 0 0 0 0 
0 0 0 0 0 0 0 0 0 
0 0 0 0 0 0 0 0 0 
0 0 0 0 0 0 0 0 0 
0 0 0 0 0 0 0 0 0 
0 0 0 0 0 0 0 0 0 
0 0 0 0 0 0 0 0 0 
0 0 0 0 0 0 0 0 0 
0 0 0 0 0 0 0 0 0 
0 0 0 0 0 0 0 0 0 
0 0 0 0 0 0 0 0 0 
0 0 0 0 0 0 0 0 0 
0 0 0 0 0 0 0 0 0 
0 0 0 0 0 0 0 0 0 
0 0 0 0 0 0 0 0 0 
0 0 0 0 0 0 0 0 0 
0 
s_yy 1 289 double
0 1.255615695e-10 -7.5336941698e-10 4.3946549324e-09 -2.5614560177e-08 1.4929270613e-07 1.7927528697e-07 -1.7552746438e-07 -1.7552746427e-07 
1.7927528642e-07 1.4929270933e-07 -2.5614578845e-08 4.394763738e-09 -7.540035825e-10 1.29257757e-10 -2.15429595e-11 0 2.6901856889e-07 
2.6594030092e-07 2.8503158889e-07 1.5982619091e-07 -1.8199454534e-07 -1.5798418067e-07 5.4503371714e-08 -1.5770931157e-07 -1.8209183477e-07 1.5494170786e-07 
3.1651503135e-07 1.1247788765e-07 1.1109880833e-07 3.1882172573e-07 1.3763520299e-07 -6.7647491163e-08 2.6901856889e-07 -1.5864112001e-09 3.1432933898e-08 
-1.9155219302e-07 5.7012477393e-09 1.6536372762e-07 1.4359100134e-07 1.0774815847e-07 3.3525196961e-07 1.4405737341e-07 -5.0592350851e-08 1.7031822939e-07 
1.3125598115e-07 1.3374867327e-07 1.7307883201e-07 -6.3273759774e-08 1.9719504507e-07 -1.5864112001e-09 4.0092899104e-10 1.018278537e-07 5.445904876e-07 
1.0430226263e-07 -2.0581962425e-08 4.3491864442e-10 9.0672897772e-10 -2.7582298893e-08 1.2927869235e-07 3.9282754448e-07 -1.7069995699e-07 -5.3348880936e-07 
-1.0827657688e-07 1.2328662463e-08 3.2962534874e-08 -1.9842564952e-07 4.0092899104e-10 -1.1915517701e-10 -5.2944461474e-09 2.6035161184e-08 -1.7929312347e-07 
-1.4693503099e-07 -1.1961773313e-07 -3.1627946361e-07 -3.4272482584e-07 1.9245634033e-08 2.2095899684e-07 -1.8229645306e-07 -3.0138491242e-07 -3.4782845934e-07 
2.9076102613e-08 1.6154697776e-07 1.7168602043e-07 -1.1915517701e-10 9.3493858477e-11 2.335662464e-08 -1.4487119045e-07 -3.5700872252e-07 -1.1582351046e-07 
-1.5112425717e-07 -1.8041602869e-07 3.1576994357e-08 -4.5085243197e-09 1.9978657853e-09 -3.0131338049e-09 2.7307026183e-08 -1.498334036e-07 -3.1492778417e-07 
-3.5940622918e-07 5.7859352264e-08 9.3493858477e-11 -1.6928137877e-10 -3.573868193e-07 -2.9579171648e-07 -3.0440892098e-07 -3.1030583126e-07 -2.7035739528e-07 
-5.041691846e-07 -3.5790409734e-07 2.0938249009e-07 3.16062884e-07 3.3312590956e-07 1.2274345522e-07 1.4676432608e-07 2.1439053042e-07 -2.0925984609e-07 
-1.678725853e-07 -1.6928137877e-10 1.8722924178e-10 -1.7878554149e-07 -1.4795804823e-07 -1.5461689686e-07 -1.4612848208e-07 -1.8965380949e-07 6.3012916276e-08 
-1.7880969195e-07 -2.1023267921e-07 2.1065925206e-07 1.6850649488e-07 7.1083727209e-10 -1.7502430071e-07 -1.8128926682e-07 3.1412841023e-08 -4.786016921e-09 
1.8722924178e-10 3.0776938324e-07 3.079826104e-07 3.0790832021e-07 3.0799050193e-07 3.0786601707e-07 3.0883531917e-07 3.03144413e-07 3.3444067912e-07 
1.5423434987e-07 -2.6319384051e-08 3.707546533e-09 3.8132567007e-09 -2.4849843215e-08 1.478311335e-07 3.7026579938e-07 9.182877957e-08 3.0776938324e-07 
1.8579176462e-10 -1.7957156437e-07 -1.4827710611e-07 -1.5413725345e-07 -1.525361998e-07 -1.6003242169e-07 -1.1666347729e-07 -3.6399316964e-07 -1.4723786437e-07 
1.929669505e-08 2.6476761959e-08 -1.8049303777e-07 -1.758993447e-07 6.5095528387e-09 1.3911094101e-07 3.8578736674e-07 1.8579176462e-10 -1.6091195305e-10 
2.8585364937e-08 -1.7920479083e-07 -1.7542111489e-07 2.3141754805e-08 5.1661597738e-08 -3.1797722453e-07 -5.6495779925e-07 6.0535552367e-08 2.0636212206e-07 
-6.8131202375e-08 2.1577198412e-07 8.156614413e-11 -2.0792237806e-07 3.7657579036e-08 -3.3296690553e-09 -1.6091195305e-10 5.2169314847e-11 1.9148805432e-07 
5.2349197845e-08 -5.0696727695e-07 -6.1842963255e-07 -5.943283928e-07 -6.2768663855e-07 -4.5714049332e-07 -2.4349546508e-07 -4.7970799702e-07 -4.759043458e-07 
-2.7030105728e-07 -3.1195030418e-07 -2.7129804662e-07 -4.6881293099e-07 -5.2303366297e-07 5.2169314847e-11 6.6648787543e-11 1.858481419e-09 4.4186763672e-09 
-3.2025180056e-08 1.6968436877e-07 1.6941774795e-07 -2.9733516815e-08 2.6256290819e-09 -5.9233817759e-09 1.4316799804e-10 -3.234190069e-08 1.7455077249e-07 
1.7415302167e-07 -3.0605123672e-08 3.5364236877e-09 -3.9717008383e-09 6.6648787543e-11 -3.8388240324e-10 -3.9344683979e-07 7.0073965179e-08 -8.2033627553e-09 
-6.6657161751e-09 7.027837285e-08 -3.9697268045e-07 1.6140118572e-08 3.3216972083e-07 3.279303824e-07 3.1481817103e-08 -5.003994479e-07 -4.7683246611e-07 
-7.9641210706e-08 -1.8079317029e-07 3.3983674313e-08 -3.8388240324e-10 1.5812960649e-09 -3.2697134961e-07 -3.0196638071e-07 -1.1328221356e-07 -1.4388192898e-07 
-1.4648187996e-07 -8.3940119304e-08 -4.7637102512e-07 -4.3368823959e-07 -2.7505367587e-07 -1.5042429543e-07 4.4067463183e-08 -1.4845844907e-07 -3.0421836993e-07 
-2.7040582415e-07 -3.2975709784e-07 1.5812960649e-09 -2.6901702713e-07 1.9962755072e-07 1.2233846212e-07 1.2411609262e-07 1.8903660447e-07 -2.1276379845e-07 
-2.6957374803e-08 3.4012811436e-07 9.658664202e-08 1.0986677915e-07 2.8985059771e-07 2.8659523062e-07 1.3954290019e-07 -6.0137219921e-08 1.8301805297e-07 
1.136662203e-08 -2.6901702713e-07 0 1.255615695e-10 -7.5336941698e-10 4.3946549324e-09 -2.5614560177e-08 1.4929270613e-07 1.7927528697e-07 
-1.7552746438e-07 -1.7552746427e-07 1.7927528642e-07 1.4929270933e-07 -2.5614578845e-08 4.394763738e-09 -7.540035825e-10 1.29257757e-10 -2.15429595e-11 
0 
s_zz 1 289 double
0 1.4062895784e-10 -8.4377374702e-10 4.9220135243e-09 -2.8688307399e-08 1.6720783087e-07 2.0078832141e-07 -1.9659076011e-07 -1.9659075998e-07 
2.0078832079e-07 1.6720783446e-07 -2.8688328307e-08 4.9221353866e-09 -8.444840124e-10 1.4476868784e-10 -2.412811464e-11 0 3.0130079715e-07 
2.9785313703e-07 3.1923537955e-07 1.7900533382e-07 -2.0383389078e-07 -1.7694228235e-07 6.104377632e-08 -1.7663442896e-07 -2.0394285494e-07 1.735347128e-07 
3.5449683511e-07 1.2597523417e-07 1.2443066533e-07 3.5708033282e-07 1.5415142735e-07 -7.5765190102e-08 3.0130079715e-07 -1.7767805441e-09 3.5204885966e-08 
-2.1453845618e-07 6.3853974681e-09 1.8520737494e-07 1.608219215e-07 1.2067793748e-07 3.7548220597e-07 1.6134425822e-07 -5.6663432953e-08 1.9075641692e-07 
1.4700669889e-07 1.4979851406e-07 1.9384829185e-07 -7.0866610947e-08 2.2085845048e-07 -1.7767805441e-09 4.4904046996e-10 1.1404719614e-07 6.0994134611e-07 
1.1681853415e-07 -2.3051797916e-08 4.8710888175e-10 1.015536455e-09 -3.0892174761e-08 1.4479213543e-07 4.3996684982e-07 -1.9118395182e-07 -5.9750746648e-07 
-1.212697661e-07 1.3808101958e-08 3.6918039059e-08 -2.2223672746e-07 4.4904046996e-10 -1.3345379826e-10 -5.9297796851e-09 2.9159380526e-08 -2.0080829829e-07 
-1.6456723471e-07 -1.3397186111e-07 -3.5423299924e-07 -3.8385180494e-07 2.1555110117e-08 2.4747407646e-07 -2.0417202743e-07 -3.3755110191e-07 -3.8956787446e-07 
3.2565234927e-08 1.8093261509e-07 1.9228834288e-07 -1.3345379826e-10 1.0471312149e-10 2.6159419597e-08 -1.6225573331e-07 -3.9984976923e-07 -1.2972233171e-07 
-1.6925916803e-07 -2.0206595213e-07 3.536623368e-08 -5.0495472381e-09 2.2376096796e-09 -3.3747098615e-09 3.0583869325e-08 -1.6781341203e-07 -3.5271911827e-07 
-4.0253497668e-07 6.4802474535e-08 1.0471312149e-10 -1.8959514423e-10 -4.0027323762e-07 -3.3128672245e-07 -3.4093799149e-07 -3.4754253101e-07 -3.0280028271e-07 
-5.6466948675e-07 -4.0085258902e-07 2.345083889e-07 3.5399043008e-07 3.7310101871e-07 1.3747266985e-07 1.6437604521e-07 2.4011739407e-07 -2.3437102762e-07 
-1.8801729553e-07 -1.8959514423e-10 2.0969675079e-10 -2.0023980647e-07 -1.6571301401e-07 -1.7317092448e-07 -1.6366389993e-07 -2.1241226663e-07 7.0574466229e-08 
-2.0026685498e-07 -2.3546060072e-07 2.359383623e-07 1.8872727426e-07 7.9613774474e-10 -1.9602721679e-07 -2.0304397883e-07 3.5182381945e-08 -5.3603389516e-09 
2.0969675079e-10 3.4470170923e-07 3.4494052365e-07 3.4485731863e-07 3.4494936216e-07 3.4480993912e-07 3.4589555747e-07 3.3952174256e-07 3.7457356062e-07 
1.7274247186e-07 -2.9477710137e-08 4.152452117e-09 4.2708475047e-09 -2.7831824401e-08 1.6557086952e-07 4.146976953e-07 1.0284823312e-07 3.4470170923e-07 
2.0808677638e-10 -2.0112015209e-07 -1.6607035885e-07 -1.7263372387e-07 -1.7084054378e-07 -1.792363123e-07 -1.3066309457e-07 -4.0767234999e-07 -1.649064081e-07 
2.1612298456e-08 2.9653973394e-08 -2.021522023e-07 -1.9700726607e-07 7.2906991794e-09 1.5580425394e-07 4.3208185075e-07 2.0808677638e-10 -1.8022138742e-10 
3.201560873e-08 -2.0070936573e-07 -1.9647164868e-07 2.5918765382e-08 5.7860989466e-08 -3.5613449147e-07 -6.3275273516e-07 6.7799818651e-08 2.3112557671e-07 
-7.630694666e-08 2.4166462221e-07 9.1354081426e-11 -2.3287306343e-07 4.2176488521e-08 -3.7292293419e-09 -1.8022138742e-10 5.8429632629e-11 2.1446662084e-07 
5.8631101587e-08 -5.6780335019e-07 -6.9264118846e-07 -6.6564779993e-07 -7.0300903518e-07 -5.1199735252e-07 -2.7271492089e-07 -5.3727295666e-07 -5.3301286729e-07 
-3.0273718415e-07 -3.4938434068e-07 -3.0385381221e-07 -5.2507048271e-07 -5.8579770253e-07 5.8429632629e-11 7.4646642048e-11 2.0814991892e-09 4.9489175313e-09 
-3.5868201663e-08 1.9004649302e-07 1.8974787771e-07 -3.3301538832e-08 2.9407045718e-09 -6.634187589e-09 1.6034815781e-10 -3.6222928772e-08 1.9549686519e-07 
1.9505138428e-07 -3.4277738512e-08 3.9607945303e-09 -4.4483049389e-09 7.4646642048e-11 -4.2994829162e-10 -4.4066046056e-07 7.8482841001e-08 -9.187766286e-09 
-7.4656021161e-09 7.8711777592e-08 -4.4460940211e-07 1.8076932801e-08 3.7203008733e-07 3.6728202829e-07 3.5259635155e-08 -5.6044738165e-07 -5.3405236204e-07 
-8.9198155991e-08 -2.0248835073e-07 3.8061715231e-08 -4.2994829162e-10 1.7710515926e-09 -3.6620791156e-07 -3.382023464e-07 -1.2687607919e-07 -1.6114776046e-07 
-1.6405970556e-07 -9.401293362e-08 -5.3353554813e-07 -4.8573082834e-07 -3.0806011697e-07 -1.6847521088e-07 4.9355558765e-08 -1.6627346296e-07 -3.4072457432e-07 
-3.0285452304e-07 -3.6932794958e-07 1.7710515926e-09 -3.0129907038e-07 2.2358285681e-07 1.3701907757e-07 1.3901002373e-07 2.1172099701e-07 -2.3829545426e-07 
-3.0192259779e-08 3.8094348809e-07 1.0817703906e-07 1.2305079265e-07 3.2463266943e-07 3.209866583e-07 1.5628804821e-07 -6.7353686311e-08 2.0498021932e-07 
1.2730616673e-08 -3.0129907038e-07 0 1.4062895784e-10 -8.4377374702e-10 4.9220135243e-09 -2.8688307399e-08 1.6720783087e-07 2.0078832141e-07 
-1.9659076011e-07 -1.9659075998e-07 2.0078832079e-07 1.6720783446e-07 -2.8688328307e-08 4.9221353866e-09 -8.444840124e-10 1.4476868784e-10 -2.412811464e-11 
0 
theta 1 289 double
273 273 273 273 273 273 273 273 273 
273 273 273 273 273 273 273 273 282.70334686 
282.70334686 282.70334686 282.70334686 282.70334686 282.70334686 282.70334686 282.70334686 282.70334686 282.70334686 
282.70334686 282.70334686 282.70334686 282.70334686 282.70334686 282.70334686 282.70334686 291.68860303 291.68860303 
291.68860303 291.68860303 291.68860303 291.68860303 291.68860303 291.68860303 291.68860303 291.68860303 291.68860303 
291.68860303 291.68860303 291.68860303 291.68860303 291.68860303 291.68860303 299.74995669 299.74995669 299.74995669 
299.74995669 299.74995669 299.74995669 299.74995669 299.74995669 299.74995669 299.74995669 299.74995669 299.74995669 
299.74995669 299.74995669 299.74995669 299.74995669 299.74995669 306.68470096 306.68470096 306.68470096 306.68470096 
306.68470096 306.68470096 306.68470096 306.68470096 306.68470096 306.68470096 306.68470096 306.68470096 306.68470096 
306.68470096 306.68470096 306.68470096 306.68470096 312.30429323 312.30429323 312.30429323 312.30429323 312.30429323 
312.30429323 312.30429323 312.30429323 312.30429323 312.30429323 312.30429323 312.30429323 312.30429323 312.30429323 
312.30429323 312.30429323 312.30429323 316.44604755 316.44604755 316.44604755 316.44604755 316.44604755 316.44604755 
316.44604755 316.44604755 316.44604755 316.44604755 316.44604755 316.44604755 316.44604755 316.44604755 316.44604755 
316.44604755 316.44604755 318.98425361 318.98425361 318.98425361 318.98425361 318.98425361 318.98425361 318.98425361 
318.98425361 318.98425361 318.98425361 318.98425361 318.98425361 318.98425361 318.98425361 318.98425361 318.98425361 
318.98425361 319.83939494 319.83939494 319.83939494 319.83939494 319.83939494 319.83939494 319.83939494 319.83939494 
319.83939494 319.83939494 319.83939494 319.83939494 319.83939494 319.83939494 319.83939494 319.83939494 319.83939494 
318.98425361 318.98425361 318.98425361 318.98425361 318.98425361 318.98425361 318.98425361 318.98425361 318.98425361 
318.98425361 318.98425361 318.98425361 318.98425361 318.98425361 318.98425361 318.98425361 318.98425361 316.44604755 
316.44604755 316.44604755 316.44604755 316.44604755 316.44604755 316.44604755 316.44604755 316.44604755 316.44604755 
316.44604755 316.44604755 316.44604755 316.44604755 316.44604755 316.44604755 316.44604755 312.30429323 312.30429323 
312.30429323 312.30429323 312.30429323 312.30429323 312.30429323 312.30429323 312.30429323 312.30429323 312.30429323 
312.30429323 312.30429323 312.30429323 312.30429323 312.30429323 312.30429323 306.68470096 306.68470096 306.68470096 
306.68470096 306.68470096 306.68470096 306.68470096 306.68470096 306.68470096 306.68470096 306.68470096 306.68470096 
306.68470096 306.68470096 306.68470096 306.68470096 306.68470096 299.74995669 299.74995669 299.74995669 299.74995669 
299.74995669 299.74995669 299.74995669 299.74995669 299.74995669 299.74995669 299.74995669 299.74995669 299.74995669 
299.74995669 299.74995669 299.74995669 299.74995669 291.68860303 291.68860303 291.68860303 291.68860303 291.68860303 
291.68860303 291.68860303 291.68860303 291.68860303 291.68860303 291.68860303 291.68860303 291.68860303 291.68860303 
291.68860303 291.68860303 291.68860303 282.70334686 282.70334686 282.70334686 282.70334686 282.70334686 282.70334686 
282.70334686 282.70334686 282.70334686 282.70334686 282.70334686 282.70334686 282.70334686 282.70334686 282.70334686 
282.70334686 282.70334686 273 273 273 273 273 273 273 
273 273 273 273 273 273 273 273 273 
273 
von%20Mises%20stress 1 289 double
0 1.598056339e-11 -9.5883380343e-11 5.5931971867e-10 -3.2600349317e-09 1.9000889871e-08 1.5184731334e-08 1.5820757755e-08 1.5820757769e-08 
1.5184731264e-08 1.9000890279e-08 -3.2600373076e-09 5.5933356665e-10 -9.5964092318e-11 1.6450987255e-11 -2.7418312091e-12 0 3.2282228253e-08 
3.1944040647e-08 3.5655309694e-08 1.2609914495e-08 1.6213313431e-08 2.039984707e-08 -6.5552733055e-09 2.0582152884e-08 1.6310314686e-08 1.2056552448e-08 
3.9039140738e-08 1.2696055271e-08 1.2946929361e-08 3.833541461e-08 1.6508491951e-08 -8.2165306182e-09 3.2282228253e-08 -1.9036929875e-10 4.2390921229e-08 
1.6633426294e-08 -6.0856241521e-09 2.0547962355e-08 1.6570598841e-08 1.2983187269e-08 3.9604146655e-08 1.6781014662e-08 -6.053259487e-09 2.0837265087e-08 
1.6635328103e-08 1.6299212202e-08 2.0690956823e-08 -7.5974240216e-09 2.399633979e-08 -1.9036929875e-10 4.8111328101e-11 5.9466377256e-08 5.6823746876e-08 
1.4093891858e-08 -2.4265391234e-09 3.2005914039e-10 5.6356403947e-10 -3.0871419659e-09 1.8011819083e-08 3.4331238073e-08 5.3865555845e-08 5.8062973617e-08 
1.3737850227e-08 -1.5996004219e-09 -3.5474014477e-09 2.3528919626e-08 4.8111328101e-11 -1.429815668e-11 2.284838553e-10 -3.9542247509e-09 2.1320789767e-08 
1.7778445653e-08 1.4191640279e-08 3.9206837936e-08 3.4194371214e-08 3.89770277e-08 1.4376943567e-08 1.4287159278e-08 3.8701826769e-08 3.4165325367e-08 
3.9471085898e-08 1.3639485309e-08 2.142735618e-08 -1.429815668e-11 1.1217974231e-11 -2.6964675711e-09 1.7585210721e-08 4.2899003294e-08 1.3890322062e-08 
1.8141078016e-08 2.1655889337e-08 -3.7970101183e-09 5.0027033303e-10 -1.0460767108e-10 6.5916494869e-10 -3.1599287885e-09 1.7879917538e-08 3.9173954382e-08 
3.4470424857e-08 4.2319085061e-08 1.1217974231e-11 -2.0310843995e-11 4.2829091767e-08 3.5419766875e-08 3.6475775434e-08 3.723412708e-08 3.221965685e-08 
6.1545977892e-08 3.6602017371e-08 1.1635201626e-08 4.0235205907e-08 3.9629085002e-08 1.4639030426e-08 1.8895423533e-08 1.8182830762e-08 1.7608580602e-08 
2.1264293206e-08 -2.0310843995e-11 2.2464208629e-11 2.150160276e-08 1.7805239165e-08 1.8601320633e-08 1.7572877529e-08 2.2840879594e-08 -7.738332695e-09 
2.2789937009e-08 1.7758333841e-08 1.7690911716e-08 2.2753279431e-08 -7.5545425704e-09 2.2189052935e-08 2.1451889294e-08 -3.6775391532e-09 5.8645455731e-10 
2.2464208629e-11 3.6932309167e-08 3.6904067967e-08 3.6911251358e-08 3.6911308749e-08 3.6889314455e-08 3.6991424598e-08 3.6400685636e-08 4.0064966124e-08 
1.8443318154e-08 -3.1558191197e-09 4.4147755926e-10 4.2295440382e-10 -3.0500894378e-09 1.7709793567e-08 4.4433087626e-08 1.1017973446e-08 3.6932309167e-08 
2.2464208629e-11 2.1618692982e-08 1.7866446525e-08 1.8539550209e-08 1.8344162532e-08 1.9243832002e-08 1.4041559859e-08 4.3745478319e-08 1.7601394884e-08 
-2.4250843851e-09 -3.1136009503e-09 2.1379145739e-08 2.2022820801e-08 -6.692803792e-09 1.805366491e-08 4.6160800197e-08 2.2464208629e-11 -2.0310843995e-11 
-3.6203371165e-09 2.1297132188e-08 2.1014501252e-08 -2.750954928e-09 -6.4221911826e-09 3.9368533838e-08 6.0434717513e-08 3.5283823168e-08 1.9291383084e-08 
-6.5293228868e-09 1.8216868973e-08 4.2628883863e-08 1.7603800166e-08 -3.2405267483e-09 3.5072197278e-10 -2.0310843995e-11 1.1217974231e-11 1.803300871e-08 
3.6252323464e-08 5.365333419e-08 7.5313671188e-08 7.0967095168e-08 7.5396880105e-08 5.4894058023e-08 2.9481679745e-08 5.7810929712e-08 5.7148144409e-08 
3.2368624713e-08 3.7366059908e-08 3.2577930049e-08 5.6235098525e-08 6.2758579289e-08 1.1217974231e-11 -1.429815668e-11 -1.9729493069e-10 5.9770475792e-10 
-3.5325111754e-09 2.0913052745e-08 2.0891490929e-08 -3.4726808004e-09 6.9342652127e-10 -2.3881947498e-10 7.0608170296e-10 -3.4668480416e-09 2.0510019786e-08 
2.05251085e-08 -3.4228703199e-09 8.455384211e-10 -1.8957099728e-11 -1.429815668e-11 4.8111328101e-11 4.0203557717e-08 3.3295101918e-08 3.4586017836e-08 
3.4425433382e-08 3.4494526043e-08 3.4443218033e-08 3.4159223141e-08 3.4072851687e-08 3.4857834635e-08 3.1020612825e-08 5.4439922735e-08 5.8282335771e-08 
1.0626413041e-08 1.3601117648e-08 4.3467546824e-08 4.8111328101e-11 -1.9036929875e-10 3.9205203171e-08 3.6288622315e-08 1.3811336742e-08 1.7538274421e-08 
1.8117466689e-08 1.0097369251e-08 5.7091891721e-08 5.2563242852e-08 3.3449517487e-08 1.7991689432e-08 -5.6386006151e-09 1.7663376775e-08 3.6973138081e-08 
3.2313261726e-08 3.9658893531e-08 -1.9036929875e-10 3.2282228253e-08 1.3360939736e-08 1.6921440341e-08 1.5824954798e-08 1.6367648975e-08 1.2898205571e-08 
3.4939652214e-08 3.5224643736e-08 1.368923148e-08 1.3503646667e-08 3.5032409535e-08 3.4072460742e-08 1.6611954757e-08 -5.692210196e-09 1.669468389e-08 
3.5139929019e-08 3.2282228253e-08 0 1.598056339e-11 -9.5883380343e-11 5.5931971867e-10 -3.2600349317e-09 1.9000889871e-08 1.5184731334e-08 
1.5820757755e-08 1.5820757769e-08 1.5184731264e-08 1.9000890279e-08 -3.2600373076e-09 5.5933356665e-10 -9.5964092318e-11 1.6450987255e-11 -2.7418312091e-12 
0 
