<?xml version="1.0"?>
<VTKFile type="UnstructuredGrid" version="0.1" byte_order="LittleEndian" header_type="UInt32" compressor="vtkZLibDataCompressor">
  <UnstructuredGrid>
    <Piece NumberOfPoints="1089" NumberOfCells="1024">
      <PointData>
        <DataArray type="Float64" Name="P1" format="ascii" RangeMin="-6.873348433380443e-7" RangeMax="5.792561468202398e-7">
          0 0 1.2556156949666403e-10 2.5849394142282115e-26 -7.53369416979984e-10 2.0679515313825692e-25
          4.394654932383241e-9 1.6543612251060553e-24 -2.5614560177319452e-8 1.3234889800848443e-23 1.4929270613153353e-7 2.6235424089603697e-7
          1.792752869722661e-7 -6.617444900424222e-24 -1.755274643809824e-7 -2.6235424089603697e-7 -1.7552746427051985e-7 -6.617444900424222e-24
          1.7927528641995332e-7 2.623542408960369e-7 1.4929270933494755e-7 -1.613002194478404e-23 -2.5614578845491016e-8 -2.5849394142282115e-26
          4.394763737998459e-9 4.8467614016778965e-25 -7.540035824997352e-10 8.885729236409477e-27 1.292577569999546e-10 1.0097419586828951e-27
          -2.1542959499992436e-11 -8.077935669463161e-28 0 3.1737544987949507e-7 3.038673017592444e-7 3.170415682400152e-7
          3.337724762091e-7 3.3093425255379123e-7 3.2002037877598305e-7 3.125243363775697e-7 2.5119367690881e-7 7.877595191996308e-8
          -7.748392212347908e-8 -9.034102875602434e-8 -4.117740496248561e-8 -1.137508772767573e-8 -9.911887682346361e-9 -4.5765615457249145e-8
          -3.5035725425123816e-8 1.0617832804128994e-7 2.5262208158062084e-7 2.790410718314973e-7 2.7837746185721284e-7 3.435734147210603e-7
          3.01715665072912e-7 -2.0109052437360014e-8 -2.5267479532773725e-7 -2.6755621116201393e-8 3.0711184988111563e-7 3.98390997348082e-7
          3.1644871947259887e-7 1.3065191444256739e-7 -1.447880722508278e-10 8.291324159790588e-8 2.365214915496252e-7 3.1737544987949507e-7
          2.690185688864742e-7 2.718902676729768e-7 2.6594030091580015e-7 2.655327231440525e-7 2.850315888868418e-7 2.6845628314346814e-7
          1.598261909132317e-7 -2.957735887470658e-9 -1.819945453422418e-7 -2.695735795655728e-7 -1.5798418067195466e-7 7.245151506201176e-10
          5.450337171415896e-8 2.1071693600007378e-9 -1.577093115705157e-7 -2.705682524797372e-7 -1.8209183477001083e-7 -3.2614006034743465e-9
          1.549417078577342e-7 2.6927976153524215e-7 3.165150313506768e-7 2.723476843674142e-7 1.1247788764883078e-7 3.272607025130057e-9
          1.1109880832651576e-7 2.7120050880881676e-7 3.188217257278624e-7 2.6921558261190913e-7 1.3763520298921404e-7 3.0780513189541123e-11
          -6.764749116275173e-8 1.614257116049328e-10 2.6901856888647414e-7 1.193570970928725e-7 3.134109145148433e-7 1.2302679966306564e-7
          -1.086063184584589e-7 -3.8299510845728935e-8 8.831097141328292e-8 2.558887723060402e-8 -7.773504066140063e-8 -7.293002953036616e-8
          -2.8932294753936028e-8 -1.4678041709753612e-8 1.4341629805490112e-8 1.0263561999510439e-7 1.518409799880557e-7 6.359476091331047e-8
          -5.819045407247933e-8 -1.0960208181266164e-7 -9.450162785443576e-8 -1.6750597745000857e-8 1.0811677181305904e-7 2.6456624411716e-7
          3.3866678550229936e-7 2.1648736230347437e-7 9.512038082741231e-8 1.7165824738084024e-7 2.7532646963662813e-7 2.3535055526764592e-7
          1.3023504119254104e-7 3.848446432996104e-8 1.699519671009126e-9 6.148090220678864e-8 1.2998222399488225e-7 1.193570970928725e-7
          -1.5864112000810168e-9 2.771885935343264e-7 3.1432933898436594e-8 -2.7832384374078647e-7 -1.9155219301637853e-7 2.7909962566160204e-10
          5.701247739335279e-9 1.7256556344141548e-9 1.6536372762066994e-7 2.836429980669009e-7 1.4359100134190544e-7 2.1475468287930744e-11
          1.0774815846865284e-7 2.8131150497379325e-7 3.3525196961450206e-7 2.8451783241763175e-7 1.4405737341003505e-7 2.7331323882665013e-9
          -5.0592350851119034e-8 -2.7757964498622813e-11 1.703182293917507e-7 2.7567100962621144e-7 1.3125598114746622e-7 -2.770312240640438e-9
          1.3374867326573596e-7 2.79477025429048e-7 1.730788320117481e-7 -2.2400490384763037e-9 -6.327375977393776e-8 -1.021213525176541e-10
          1.9719504506790268e-7 2.7967964621086696e-7 -1.5864112000810125e-9 -2.4660310448161513e-8 -2.3908627544049434e-8 6.013249255619722e-8
          1.508357051489982e-7 1.715736655307736e-7 1.397773913047291e-7 7.287790007407072e-8 4.872643935858272e-8 1.4517425667804966e-7
          2.1732679797772926e-7 1.2028950920287929e-7 2.238153526836075e-8 9.192202108903459e-8 2.11244945456699e-7 2.626842871631521e-7
          2.564664291031176e-7 2.0281775417131918e-7 1.5427015625470741e-7 1.633555292402332e-7 1.396227094160945e-7 -7.3794669295106885e-9
          -1.6446522330206322e-7 -2.1844878320704384e-7 -1.56822117458137e-7 3.292280313097306e-8 1.695576499356575e-7 7.185409433128752e-8
          -6.952488892749106e-8 -6.391632508603249e-8 -7.009434223832791e-9 5.506563579612055e-9 -6.87487929029762e-9 -2.466031044816151e-8
          4.009289910398233e-10 -2.9026651212498306e-7 1.0182785369886067e-7 5.792561468202398e-7 5.44590487596823e-7 2.8916211365711717e-7
          1.0430226262962978e-7 -1.7065884196071802e-9 -2.058196242456125e-8 -2.982059898722773e-9 4.349186444178745e-10 -1.284370496360532e-9
          9.06728977720759e-10 -4.1423810992991305e-9 -2.7582298893381125e-8 -4.684711908251442e-9 1.292786923523638e-7 2.8991406183434216e-7
          3.928275444835613e-7 2.889719387326469e-7 -1.7069995698577584e-7 -5.801871904296516e-7 -5.334888093569253e-7 -2.8979015707122366e-7
          -1.0827657687617322e-7 -2.9147449666128577e-9 1.2328662462618567e-8 2.579228160097902e-9 3.296253487440205e-8 3.403273866124878e-10
          -1.9842564952218928e-7 -2.8963793570353595e-7 4.009289910398224e-10 7.609306634024631e-9 -2.118574197470289e-7 4.8742804769858424e-8
          3.843713871252325e-7 3.899897342596394e-7 2.1126474089190056e-7 -6.136698259162129e-9 -1.5458759062793126e-7 -1.2646094364878916e-7
          -5.745131756472163e-8 -8.32532726187144e-8 -1.4714158531290873e-7 -1.9239103214944594e-7 -2.3374486707453286e-7 -2.859463440343763e-7
          -2.260961738136629e-7 6.870493280292084e-8 3.545412978801048e-7 3.874972434826187e-7 1.8973167070787945e-7 -2.165965193466962e-7
          -5.464007231964871e-7 -5.145943373568726e-7 -3.445235875923281e-7 -2.595346996673299e-7 -1.5929622005195208e-7 5.652330478373124e-8
          2.2086768674806587e-7 1.6668073774939758e-7 2.75154971953414e-8 -6.307499550648767e-8 -7.855547935921739e-8 7.609306634024631e-9
          -1.1915517701497241e-10 2.5217763558332045e-9 -5.2944461473803e-9 -3.9844440751344714e-9 2.6035161184091755e-8 -3.1097065541351174e-9
          -1.7929312347424839e-7 -2.9605494610978463e-7 -1.4693503099428032e-7 9.246854663474146e-10 -1.1961773313381873e-7 -2.961549088182263e-7
          -3.162794636103229e-7 -2.938499263414952e-7 -3.427248258431299e-7 -2.9449576981760136e-7 1.9245634032716232e-8 2.929227636157961e-7
          2.209589968396117e-7 -2.2469731138014687e-9 -1.8229645306240786e-7 -2.9130418537522015e-7 -3.013849124212512e-7 -2.933044113581282e-7
          -3.4782845934347904e-7 -2.9651548010915155e-7 2.9076102613005974e-8 2.935592636336377e-7 1.6154697776338755e-7 -1.0482662287166838e-9
          1.716860204263526e-7 2.989342525148387e-7 -1.1915517701497223e-10 -4.6108183076164755e-9 7.187886020834557e-8 3.2178370822638475e-8
          -5.532021106012819e-8 -1.2222481003534486e-7 -1.9632530358047718e-7 -3.0541156917299055e-7 -3.212737322910105e-7 -1.1570191841266232e-7
          3.8464489103022255e-8 -1.316138931029884e-7 -3.233599964796739e-7 -2.3419675247601406e-7 -9.480501619499451e-8 -1.3586564273960096e-7
          -1.7614644138321351e-7 -3.4415221399212116e-8 1.026989598510371e-7 4.856704500616808e-8 -6.89216665107811e-8 -1.2187787527677233e-7
          -1.2897277695063258e-7 -1.0887756719118898e-7 -1.415442761728595e-7 -3.069249340700621e-7 -3.96322299353105e-7 -2.0103913049229618e-7
          -6.901773326812307e-9 -9.97365736958301e-8 -1.4442180678506752e-7 1.941642522197576e-7 4.0958133711384226e-7 -4.6108183076164755e-9
          9.349385847748799e-11 -1.1680811110482067e-9 2.335662464020933e-8 8.593922353416516e-12 -1.4487119045451264e-7 -3.0072840407520107e-7
          -3.570087225245242e-7 -2.9995835493922095e-7 -1.1582351045603026e-7 -8.101556676900297e-10 -1.5112425716693813e-7 -2.999361148690232e-7
          -1.8041602868919385e-7 -5.747438671421e-10 3.157699435743986e-8 1.7090971510725937e-9 -4.508524319723254e-9 -7.81685949621108e-11
          1.9978657853417443e-9 1.1945527418265264e-9 -3.0131338048694537e-9 1.611969542922559e-9 2.7307026182871226e-8 1.1369353812402154e-9
          -1.4983340359570686e-7 -2.9779223027206255e-7 -3.149277841719196e-7 -3.0190935417992507e-7 -3.594062291807256e-7 -3.01467097568227e-7
          5.785935226366535e-8 2.98427942133163e-7 9.349385847748769e-11 1.0795779410037255e-8 -1.4433542307490773e-7 -1.6031800587459877e-7
          -1.473968066481524e-7 -2.1581666305468524e-7 -3.0124982480084225e-7 -3.393685415932687e-7 -3.139333599201063e-7 -2.087048262694969e-7
          -1.3466626971291348e-7 -2.0280101932182917e-7 -3.133526980196245e-7 -3.6656492872968003e-7 -3.1688277644915905e-7 -1.1875130617522471e-7
          8.593246507358415e-8 1.552715202787289e-7 1.545458402180359e-7 1.490354056693315e-7 1.5595411075013415e-7 1.925158495779622e-7
          1.9797327181760774e-7 1.1157902713386276e-7 3.26894759874076e-8 6.066097883892254e-8 7.626823476653941e-8 -3.971405715160998e-8
          -2.09087068622681e-7 -3.536519713538289e-7 -3.554672012695813e-7 -9.659119429446527e-8 1.2486636184193544e-7 1.0795779410037255e-8
          -1.6928137877241951e-10 -3.052194677788823e-7 -3.573868193047164e-7 -3.0485101064196256e-7 -2.957917164763087e-7 -3.0428549914270786e-7
          -3.0440892097611316e-7 -3.0385226925449585e-7 -3.103058312558274e-7 -3.0529805669224287e-7 -2.7035739527587754e-7 -3.038567901846807e-7
          -5.041691845966018e-7 -6.094623598646197e-7 -3.579040973417133e-7 -1.0904597741283743e-9 2.0938249009188917e-7 3.0470389157667745e-7
          3.160628840005746e-7 3.050175343383734e-7 3.331259095648662e-7 3.043729148142539e-7 1.2274345522073704e-7 -2.851730708067033e-10
          1.4676432608450035e-7 3.0471515860669286e-7 2.1439053041580558e-7 1.2467570165267483e-9 -2.0925984608645523e-7 -3.0350703986675383e-7
          -1.6787258529798231e-7 -6.591199465265807e-10 -1.6928137877241954e-10 -3.911716003447993e-8 -4.1311501606072147e-7 -3.7180877277450473e-7
          -2.2824561937861937e-7 -2.9547274507585523e-7 -3.781959171371445e-7 -2.811209028334196e-7 -1.9485713017195436e-7 -3.1001402716002253e-7
          -4.172830244956503e-7 -3.0735555287686347e-7 -1.9502349916672716e-7 -2.9507875022830623e-7 -4.215556494119005e-7 -3.884885400678095e-7
          -2.410680836212839e-7 -2.4484941497574372e-8 1.875397537771632e-7 3.2128486967677314e-7 3.6266879527217564e-7 2.97609919634291e-7
          1.7811566693203338e-7 5.619346133431704e-8 -2.2324885410050565e-8 -1.160756155226186e-8 3.037984188421053e-8 4.567173387589423e-8
          1.0381083348032336e-8 -9.937914077413185e-8 -1.7371961847005348e-7 -1.0275102971918761e-7 -1.5031001310880895e-8 -3.911716003447993e-8
          1.872292417760035e-10 -3.060307378031779e-7 -1.7878554149151432e-7 9.097208197053229e-10 -1.4795804822658007e-7 -3.0619740274772016e-7
          -1.5461689686106466e-7 7.504248800040897e-10 -1.4612848207789595e-7 -3.060108245849003e-7 -1.8965380949114433e-7 7.512188977938585e-10
          6.301291627633622e-8 1.6522801570967339e-9 -1.7880969194731084e-7 -3.0667175881224637e-7 -2.1023267921306987e-7 -7.148699800742232e-10
          2.1065925205644807e-7 3.062722019813415e-7 1.685064948794504e-7 -6.699373300322961e-10 7.108372720860825e-10 1.0674178176934295e-10
          -1.750243007050187e-7 -3.0778780022514686e-7 -1.8128926681548358e-7 -4.8964918706343775e-11 3.1412841022507575e-8 6.494055183377068e-10
          -4.78601692103644e-9 7.158666617853365e-11 1.872292417759981e-10 1.8484285544508218e-7 7.839313502161995e-8 1.4670800339235826e-7
          2.234445864462169e-7 1.4226001007211603e-7 6.130952506032404e-8 1.3874838220110918e-7 2.2246422670587287e-7 1.6034470378601672e-7
          8.520968024672599e-8 1.298790228931859e-7 2.2253529025423947e-7 2.9136104085872983e-7 2.905597009611049e-7 1.743346968158125e-7
          3.422652338977946e-8 -3.8224324350067285e-8 -2.8433462798412898e-8 7.818349165005779e-8 1.5126199240842798e-7 6.043749288978065e-8
          -3.528503073661284e-8 2.309939769851867e-8 5.623128977810181e-8 -1.1524884291493681e-7 -2.3953580939792743e-7 -6.482441868820007e-8
          1.7400788205220412e-7 2.4208364566124426e-7 1.8014976873027675e-7 2.8953147850657903e-8 -2.998842167770827e-8 1.848428554450822e-7
          3.077693832392092e-7 3.08213995186804e-7 3.079826103992665e-7 3.076793462736518e-7 3.079083202070154e-7 3.0817641211926484e-7
          3.079905019303076e-7 3.0775292509660994e-7 3.0786601707463813e-7 3.082525557901862e-7 3.088353191690485e-7 3.0775303048104e-7
          3.0314441299597534e-7 3.0778258858616674e-7 3.344406791239257e-7 3.082231208163954e-7 1.5423434987071906e-7 1.58727757963936e-10
          -2.631938405080243e-8 -1.5232973322941498e-10 3.7075465330336325e-9 8.711769524533078e-11 3.813256700664272e-9 3.4719318518832715e-10
          -2.4849843215284627e-8 2.891395425904793e-10 1.4783113350215872e-7 3.0781154975072224e-7 3.702657993755831e-7 3.0750212758060366e-7
          9.182877956964636e-8 -2.501625724360288e-10 3.077693832392092e-7 1.847409443682715e-7 2.8717325254700904e-8 8.917098252999256e-8
          1.8385138530883956e-7 1.305080027059349e-7 6.154268191262004e-8 1.0935727012023681e-7 1.540131006680919e-7 7.55715068954923e-8
          5.74959039408729e-9 7.6264452755526e-8 1.53897896630106e-7 1.0543172466812474e-7 3.53696653762087e-8 4.821544726098402e-8
          6.906164778455475e-8 2.3000844409025164e-8 -3.8049991671653274e-8 -6.217388926352883e-8 -4.933501782786275e-8 5.024531740837204e-10
          -1.2043987095929427e-9 -1.4299849593079632e-7 -2.397772300794012e-7 -1.0643799274528225e-7 8.030575910844215e-8 1.4374056851865366e-7
          1.7791438593903262e-7 2.7687516182325917e-7 3.394979706481479e-7 2.646578868905137e-7 1.7289288623550528e-7 1.8474094436827148e-7
          1.8579176462161291e-10 -3.0673142553900923e-7 -1.795715643698427e-7 3.5125039739229117e-10 -1.482771061120333e-7 -3.061941140213219e-7
          -1.5413725345367595e-7 -2.1509263734642153e-10 -1.5253619980058432e-7 -3.0713162585032604e-7 -1.6003242169350786e-7 -2.1692596300515742e-10
          -1.1666347729169327e-7 -3.0578468780681237e-7 -3.6399316963560275e-7 -3.061804020622683e-7 -1.472378643710132e-7 -8.505131406862963e-10
          1.9296695049863436e-8 -3.947198876333961e-10 2.6476761958553834e-8 -1.8922285345365752e-10 -1.8049303776553472e-7 -3.079059794805612e-7
          -1.7589934470140533e-7 5.610911967461275e-10 6.509552838706184e-9 6.137139545420536e-12 1.3911094101433448e-7 3.067345042777951e-7
          3.857873667446492e-7 3.067707290339177e-7 1.8579176462160718e-10 -3.881594504887062e-8 -2.285663778054733e-7 -1.5380049279885477e-7
          -7.349779285350448e-8 -2.4663778079391216e-7 -3.7888505064556057e-7 -1.7590419643393234e-7 4.51850500742304e-8 -3.273704288781445e-8
          -1.447020370771658e-7 -2.5741494250922467e-8 4.5569225633577844e-8 -2.093452373810025e-7 -5.024494365816319e-7 -5.457079252552788e-7
          -3.81752630055534e-7 -5.32154776359889e-8 2.1596298996319872e-7 2.0184223070187075e-7 8.269272868641953e-8 3.678496802323756e-8
          3.966114705434492e-8 6.686346412176174e-8 5.515068021603259e-8 -5.871844367229795e-8 -1.5526182182696977e-7 -1.1499736853172295e-7
          -1.1652328020667885e-9 1.2299443634648946e-7 2.2817410017926725e-7 2.8506621996158806e-7 2.2046985258751956e-7 -3.881594504887062e-8
          -1.6091195305065574e-10 -7.51901658023909e-10 2.8585364937347082e-8 -1.21147663152317e-9 -1.7920479082922024e-7 -3.043046471001025e-7
          -1.7542111488852823e-7 2.157215761240026e-9 2.3141754804939715e-8 1.6155371584263101e-9 5.1661597737555636e-8 2.1679920173587494e-9
          -3.1797722452713304e-7 -6.074578791871967e-7 -5.649577992541095e-7 -3.0433923773407806e-7 6.053555236669031e-8 3.0549364698526127e-7
          2.0636212205870036e-7 2.150623600801129e-9 -6.81312023746427e-8 1.1860993811186172e-9 2.1577198411683483e-7 3.0545946773650543e-7
          8.15661441299859e-11 -3.0337471700684774e-7 -2.0792237806298412e-7 9.259362074860731e-10 3.7657579036327834e-8 2.747420567441223e-9
          -3.32966905527365e-9 1.632242620467579e-9 -1.6091195305065657e-10 9.718566281235964e-9 4.246280348223517e-8 1.554998824907522e-7
          1.8311550492993824e-7 -4.040462757705552e-8 -2.987853270227482e-7 -3.757514053996589e-7 -3.627322510149195e-7 -3.511572521756621e-7
          -3.3697093873178103e-7 -3.161178405331706e-7 -3.641204613486279e-7 -5.565013049469499e-7 -6.873348433380443e-7 -5.506955485318195e-7
          -2.948733268147421e-7 -6.815808447327882e-8 1.575827788989424e-8 -1.56816140327899e-7 -3.49320584483187e-7 -3.2519429993249814e-7
          -1.9080760098989858e-7 -5.2530801969454634e-8 -2.020167892658254e-8 -2.0365800791669874e-7 -3.679397513554064e-7 -2.780868716583087e-7
          -1.6779482241846963e-7 -2.707590572289531e-7 -3.9761655375541683e-7 -3.590042896635189e-7 -2.0615000347679078e-7 9.718566281235962e-9
          5.216931484720505e-11 4.457228177931925e-11 1.9148805432305478e-7 3.002878509928632e-7 5.2349197845393887e-8 -3.006338598821955e-7
          -5.069672769527476e-7 -6.013371642230264e-7 -6.18429632549796e-7 -6.016312020389178e-7 -5.943283927962525e-7 -6.013904549316213e-7
          -6.276866385548437e-7 -6.030067244289534e-7 -4.5714049331698346e-7 -3.0049954145576487e-7 -2.4349546508212836e-7 -2.989557787517511e-7
          -4.797079970203104e-7 -6.004561694987572e-7 -4.759043457980428e-7 -3.009026127723494e-7 -2.703010572758594e-7 -3.0151263563602056e-7
          -3.119503041802806e-7 -3.0181259660770074e-7 -2.712980466173424e-7 -3.003252821107727e-7 -4.6881293098955885e-7 -6.014770417713372e-7
          -5.230336629737441e-7 -3.0026364310795694e-7 5.2169314847204985e-11 -7.334483595765003e-10 1.6380055232187705e-8 1.422464121647957e-7
          2.0354496645665174e-7 2.695506212616028e-8 -2.05196129015391e-7 -3.1058143515671463e-7 -3.240199644102834e-7 -2.803308248885701e-7
          -2.4340106056048774e-7 -2.7711771539494844e-7 -3.1901938029727784e-7 -3.066446461728004e-7 -2.6934779671562e-7 -2.3648311561983947e-7
          -2.175943904609424e-7 -2.2222540881441185e-7 -2.6578635967683425e-7 -3.636874320447962e-7 -4.114375622073149e-7 -3.045456864534076e-7
          -1.417148569088251e-7 -2.164812569931824e-8 2.5784564934195644e-8 -2.9286727249200963e-8 -1.13730343168593e-7 -1.5441462374306556e-7
          -1.9191955017654922e-7 -2.668251036729743e-7 -3.264478833627874e-7 -3.1810448837643504e-7 -2.1759848721000298e-7 -7.334483595765001e-10
          6.664878754303588e-11 1.287916109116217e-9 1.8584814189598895e-9 2.6211373080215462e-9 4.4186763672487365e-9 -3.5347974164455424e-9
          -3.2025180056148367e-8 -9.772113834016693e-10 1.696843687702525e-7 2.898519065126647e-7 1.6941774795168574e-7 -7.375715962556515e-10
          -2.9733516814730712e-8 -8.51859367434475e-10 2.625629081938394e-9 -4.123921657319093e-9 -5.923381775913588e-9 -4.06895173655547e-9
          1.4316799804499268e-10 -5.2826168827338334e-9 -3.2341900689513566e-8 4.4325096982885175e-10 1.745507724874166e-7 2.968356880075419e-7
          1.7415302167449687e-7 3.80256708110937e-10 -3.06051236717867e-8 -1.8655808752354317e-9 3.5364236877252944e-9 -1.4739897206953185e-9
          -3.971700838288002e-9 -3.5827934179196396e-9 6.664878754303596e-11 -6.2310886082266104e-9 -1.3768503623004973e-7 -2.1365981586524883e-7
          -1.6448887208454524e-7 7.949435054134004e-8 2.429294341735635e-7 5.045596097328171e-8 -9.873532491741731e-8 1.94546320643555e-7
          4.601352437554985e-7 2.2786579051771312e-7 -1.1658604981679067e-7 -1.8754428799500276e-7 -7.703732135426895e-8 1.22906452768065e-7
          2.8675062052371287e-7 2.889587680643887e-7 2.5324055399911676e-7 3.0330563693692165e-7 2.944013166565437e-7 8.177489293672338e-8
          -1.3602044087908433e-7 -1.6043149144742398e-7 -1.1544922207526476e-7 -1.2506459606957548e-7 -1.1386026822883022e-7 -6.418893351502844e-9
          7.024748840424956e-8 -1.0873163119730129e-8 -5.699761348397792e-8 1.2465737175097022e-7 2.39707608178444e-7 -6.231088608226612e-9
          -3.8388240323615003e-10 -2.8648849483122886e-7 -3.934468397869351e-7 -2.8625924415521035e-7 7.007396517909041e-8 2.9095764128828187e-7
          -8.203362755321099e-9 -2.8741062317027256e-7 -6.665716175125695e-9 2.929308014312106e-7 7.027837284982742e-8 -2.884228413135319e-7
          -3.9697268045312416e-7 -2.8543155651065193e-7 1.6140118572182094e-8 2.934409944621592e-7 3.3216972082606066e-7 2.9083121201953964e-7
          3.279303823982494e-7 2.9197724606004634e-7 3.148181710278721e-8 -2.8787178678235247e-7 -5.003994479041969e-7 -5.740650473256747e-7
          -4.7683246610971423e-7 -2.861938164914941e-7 -7.964121070619273e-8 2.3255913317680613e-9 -1.8079317029203362e-7 -2.8492973086807957e-7
          3.398367431314841e-8 2.906109791639847e-7 -3.838824032361492e-10 2.4309216352737837e-8 -3.2359691703980054e-7 -4.3250941419902865e-7
          -3.5829860167375106e-7 -1.5683480601277222e-7 -6.728689454894986e-9 -8.659091423892227e-8 -1.950794999319688e-7 -1.3085246610114922e-7
          -3.3790906913118416e-8 -4.377591653453172e-8 -1.3192053606708143e-7 -2.6933780661246034e-7 -3.6176849465744387e-7 -3.149533666888081e-7
          -1.961352084394133e-7 -7.255680564212013e-8 9.452553522579768e-9 3.563580874194675e-9 -4.8202893004156735e-8 -1.0382603752935552e-7
          -1.8558130456933777e-7 -3.157441459920393e-7 -4.1648564583323687e-7 -4.099768881287064e-7 -3.2966615660385624e-7 -2.09001734984094e-7
          -1.6024878250243525e-7 -2.956724583918957e-7 -3.856814580128051e-7 -2.006844767254935e-7 1.6813932414775404e-8 2.430921635273784e-8
          1.5812960648588973e-9 -2.8140241822342066e-7 -3.269713496054342e-7 -2.841508773470047e-7 -3.0196638071395475e-7 -2.788620845148121e-7
          -1.1328221355810461e-7 -2.523313247033988e-9 -1.4388192898480232e-7 -2.782406036101224e-7 -1.464818799617074e-7 1.562271595482137e-9
          -8.394011930351453e-8 -2.831856768199552e-7 -4.7637102511509757e-7 -5.607779505751555e-7 -4.336882395863433e-7 -2.776105840498819e-7
          -2.7505367586699255e-7 -2.8099806350484503e-7 -1.5042429543060893e-7 -2.3849328120468347e-9 4.4067463183078435e-8 -6.234558539477911e-9
          -1.484584490739604e-7 -2.814908417585081e-7 -3.042183699312603e-7 -2.795527814431651e-7 -2.704058241451707e-7 -2.84549821717669e-7
          -3.2975709784105217e-7 -2.772919570639871e-7 1.581296064858899e-9 -1.1927197020495358e-7 -1.9934439449036631e-7 -1.0210441093913828e-7
          -1.1631905240660474e-8 -1.1200676308432371e-7 -1.9260462196875317e-7 -4.280111939257394e-8 8.593276171616158e-8 -5.787396157059904e-8
          -2.5196381245645764e-7 -2.7407931414501636e-7 -2.0228914835400397e-7 -1.1466199680114942e-7 -7.671133194842507e-8 -1.5395062625780355e-7
          -2.5613096583367895e-7 -2.9300343678044553e-7 -2.6244869744233745e-7 -1.6234740616358888e-7 -4.9402503013291356e-8 1.9683071939463867e-8
          8.362981267028927e-8 1.8115821315479749e-7 1.9671229894152076e-7 1.4736095578991629e-8 -1.978728360595719e-7 -2.7421693510095206e-7
          -2.301263417988434e-7 -8.143119640694052e-8 -4.992610040712889e-9 -1.7767169381563024e-7 -3.1169072233570587e-7 -1.1927197020495358e-7
          -2.690170271277402e-7 -4.517371150863539e-9 1.996275507218232e-7 2.672890559809252e-7 1.2233846211704783e-7 -2.845451970697566e-9
          1.241160926168004e-7 2.6686335754268633e-7 1.8903660447010487e-7 -5.470377295107147e-9 -2.1276379844711298e-7 -2.7315551295876106e-7
          -2.6957374802899455e-8 2.645605297336061e-7 3.401281143638903e-7 2.6303895861641577e-7 9.658664201964545e-8 -5.6602722084196215e-9
          1.0986677915022155e-7 2.6706975086534296e-7 2.8985059770671856e-7 2.6682164813814636e-7 2.8659523062342455e-7 2.704195722707852e-7
          1.395429001884606e-7 -4.490719312428755e-9 -6.013721992076222e-8 -5.074872279736985e-9 1.830180529674498e-7 2.6740930225812804e-7
          1.1366622029627385e-8 -2.718591127537595e-7 -2.690170271277402e-7 -3.1738270213918256e-7 2.585300257802521e-7 4.243644528615509e-7
          3.2551088407400303e-7 1.0735962438689768e-7 1.3384686050605157e-8 2.8706008131549575e-7 5.647941415923813e-7 4.829951982920738e-7
          2.6301285950099523e-7 1.2619673330556752e-7 1.3887654247254103e-7 3.6738200976866597e-7 5.756263846140696e-7 5.27522916428879e-7
          3.832722312588343e-7 3.0307495514967596e-7 2.639061038162993e-7 2.4274069297359977e-7 2.8877310349506327e-7 4.511977162541754e-7
          5.649903379404031e-7 4.65126775243213e-7 3.107852875263978e-7 2.6114413415375044e-7 2.584046585297087e-7 2.4476820405871e-7
          2.61152448389972e-7 3.4847506917271236e-7 3.2494525910978417e-7 8.772210904040288e-9 -3.040138509953412e-7 -3.1738270213918256e-7
          0 0 1.2556156949666403e-10 2.5849394142282115e-26 -7.53369416979984e-10 2.0679515313825692e-25
          4.394654932383241e-9 1.6543612251060553e-24 -2.5614560177319452e-8 1.3234889800848443e-23 1.4929270613153353e-7 2.6235424089603697e-7
          1.792752869722661e-7 -6.617444900424222e-24 -1.755274643809824e-7 -2.6235424089603697e-7 -1.7552746427051985e-7 -6.617444900424222e-24
          1.7927528641995332e-7 2.623542408960369e-7 1.4929270933494755e-7 -1.613002194478404e-23 -2.5614578845491016e-8 -2.5849394142282115e-26
          4.394763737998459e-9 4.8467614016778965e-25 -7.540035824997352e-10 8.885729236409477e-27 1.292577569999546e-10 1.0097419586828951e-27
          -2.1542959499992436e-11 -8.077935669463161e-28 0
        </DataArray>
        <DataArray type="Float64" Name="P2" format="ascii" RangeMin="-6.873348433380443e-7" RangeMax="5.792561468202398e-7">
          0 0 1.2556156949666403e-10 2.5849394142282115e-26 -7.53369416979984e-10 2.0679515313825692e-25
          4.394654932383241e-9 1.6543612251060553e-24 -2.5614560177319452e-8 1.3234889800848443e-23 1.4929270613153353e-7 2.6235424089603697e-7
          1.792752869722661e-7 -6.617444900424222e-24 -1.755274643809824e-7 -2.6235424089603697e-7 -1.7552746427051985e-7 -6.617444900424222e-24
          1.7927528641995332e-7 2.623542408960369e-7 1.4929270933494755e-7 -1.613002194478404e-23 -2.5614578845491016e-8 -2.5849394142282115e-26
          4.394763737998459e-9 4.8467614016778965e-25 -7.540035824997352e-10 8.885729236409477e-27 1.292577569999546e-10 1.0097419586828951e-27
          -2.1542959499992436e-11 -8.077935669463161e-28 0 3.1737544987949507e-7 3.038673017592444e-7 3.170415682400152e-7
          3.337724762091e-7 3.3093425255379123e-7 3.2002037877598305e-7 3.125243363775697e-7 2.5119367690881e-7 7.877595191996308e-8
          -7.748392212347908e-8 -9.034102875602434e-8 -4.117740496248561e-8 -1.137508772767573e-8 -9.911887682346361e-9 -4.5765615457249145e-8
          -3.5035725425123816e-8 1.0617832804128994e-7 2.5262208158062084e-7 2.790410718314973e-7 2.7837746185721284e-7 3.435734147210603e-7
          3.01715665072912e-7 -2.0109052437360014e-8 -2.5267479532773725e-7 -2.6755621116201393e-8 3.0711184988111563e-7 3.98390997348082e-7
          3.1644871947259887e-7 1.3065191444256739e-7 -1.447880722508278e-10 8.291324159790588e-8 2.365214915496252e-7 3.1737544987949507e-7
          2.690185688864742e-7 2.718902676729768e-7 2.6594030091580015e-7 2.655327231440525e-7 2.850315888868418e-7 2.6845628314346814e-7
          1.598261909132317e-7 -2.957735887470658e-9 -1.819945453422418e-7 -2.695735795655728e-7 -1.5798418067195466e-7 7.245151506201176e-10
          5.450337171415896e-8 2.1071693600007378e-9 -1.577093115705157e-7 -2.705682524797372e-7 -1.8209183477001083e-7 -3.2614006034743465e-9
          1.549417078577342e-7 2.6927976153524215e-7 3.165150313506768e-7 2.723476843674142e-7 1.1247788764883078e-7 3.272607025130057e-9
          1.1109880832651576e-7 2.7120050880881676e-7 3.188217257278624e-7 2.6921558261190913e-7 1.3763520298921404e-7 3.0780513189541123e-11
          -6.764749116275173e-8 1.614257116049328e-10 2.6901856888647414e-7 1.193570970928725e-7 3.134109145148433e-7 1.2302679966306564e-7
          -1.086063184584589e-7 -3.8299510845728935e-8 8.831097141328292e-8 2.558887723060402e-8 -7.773504066140063e-8 -7.293002953036616e-8
          -2.8932294753936028e-8 -1.4678041709753612e-8 1.4341629805490112e-8 1.0263561999510439e-7 1.518409799880557e-7 6.359476091331047e-8
          -5.819045407247933e-8 -1.0960208181266164e-7 -9.450162785443576e-8 -1.6750597745000857e-8 1.0811677181305904e-7 2.6456624411716e-7
          3.3866678550229936e-7 2.1648736230347437e-7 9.512038082741231e-8 1.7165824738084024e-7 2.7532646963662813e-7 2.3535055526764592e-7
          1.3023504119254104e-7 3.848446432996104e-8 1.699519671009126e-9 6.148090220678864e-8 1.2998222399488225e-7 1.193570970928725e-7
          -1.5864112000810168e-9 2.771885935343264e-7 3.1432933898436594e-8 -2.7832384374078647e-7 -1.9155219301637853e-7 2.7909962566160204e-10
          5.701247739335279e-9 1.7256556344141548e-9 1.6536372762066994e-7 2.836429980669009e-7 1.4359100134190544e-7 2.1475468287930744e-11
          1.0774815846865284e-7 2.8131150497379325e-7 3.3525196961450206e-7 2.8451783241763175e-7 1.4405737341003505e-7 2.7331323882665013e-9
          -5.0592350851119034e-8 -2.7757964498622813e-11 1.703182293917507e-7 2.7567100962621144e-7 1.3125598114746622e-7 -2.770312240640438e-9
          1.3374867326573596e-7 2.79477025429048e-7 1.730788320117481e-7 -2.2400490384763037e-9 -6.327375977393776e-8 -1.021213525176541e-10
          1.9719504506790268e-7 2.7967964621086696e-7 -1.5864112000810125e-9 -2.4660310448161513e-8 -2.3908627544049434e-8 6.013249255619722e-8
          1.508357051489982e-7 1.715736655307736e-7 1.397773913047291e-7 7.287790007407072e-8 4.872643935858272e-8 1.4517425667804966e-7
          2.1732679797772926e-7 1.2028950920287929e-7 2.238153526836075e-8 9.192202108903459e-8 2.11244945456699e-7 2.626842871631521e-7
          2.564664291031176e-7 2.0281775417131918e-7 1.5427015625470741e-7 1.633555292402332e-7 1.396227094160945e-7 -7.3794669295106885e-9
          -1.6446522330206322e-7 -2.1844878320704384e-7 -1.56822117458137e-7 3.292280313097306e-8 1.695576499356575e-7 7.185409433128752e-8
          -6.952488892749106e-8 -6.391632508603249e-8 -7.009434223832791e-9 5.506563579612055e-9 -6.87487929029762e-9 -2.466031044816151e-8
          4.009289910398233e-10 -2.9026651212498306e-7 1.0182785369886067e-7 5.792561468202398e-7 5.44590487596823e-7 2.8916211365711717e-7
          1.0430226262962978e-7 -1.7065884196071802e-9 -2.058196242456125e-8 -2.982059898722773e-9 4.349186444178745e-10 -1.284370496360532e-9
          9.06728977720759e-10 -4.1423810992991305e-9 -2.7582298893381125e-8 -4.684711908251442e-9 1.292786923523638e-7 2.8991406183434216e-7
          3.928275444835613e-7 2.889719387326469e-7 -1.7069995698577584e-7 -5.801871904296516e-7 -5.334888093569253e-7 -2.8979015707122366e-7
          -1.0827657687617322e-7 -2.9147449666128577e-9 1.2328662462618567e-8 2.579228160097902e-9 3.296253487440205e-8 3.403273866124878e-10
          -1.9842564952218928e-7 -2.8963793570353595e-7 4.009289910398224e-10 7.609306634024631e-9 -2.118574197470289e-7 4.8742804769858424e-8
          3.843713871252325e-7 3.899897342596394e-7 2.1126474089190056e-7 -6.136698259162129e-9 -1.5458759062793126e-7 -1.2646094364878916e-7
          -5.745131756472163e-8 -8.32532726187144e-8 -1.4714158531290873e-7 -1.9239103214944594e-7 -2.3374486707453286e-7 -2.859463440343763e-7
          -2.260961738136629e-7 6.870493280292084e-8 3.545412978801048e-7 3.874972434826187e-7 1.8973167070787945e-7 -2.165965193466962e-7
          -5.464007231964871e-7 -5.145943373568726e-7 -3.445235875923281e-7 -2.595346996673299e-7 -1.5929622005195208e-7 5.652330478373124e-8
          2.2086768674806587e-7 1.6668073774939758e-7 2.75154971953414e-8 -6.307499550648767e-8 -7.855547935921739e-8 7.609306634024631e-9
          -1.1915517701497241e-10 2.5217763558332045e-9 -5.2944461473803e-9 -3.9844440751344714e-9 2.6035161184091755e-8 -3.1097065541351174e-9
          -1.7929312347424839e-7 -2.9605494610978463e-7 -1.4693503099428032e-7 9.246854663474146e-10 -1.1961773313381873e-7 -2.961549088182263e-7
          -3.162794636103229e-7 -2.938499263414952e-7 -3.427248258431299e-7 -2.9449576981760136e-7 1.9245634032716232e-8 2.929227636157961e-7
          2.209589968396117e-7 -2.2469731138014687e-9 -1.8229645306240786e-7 -2.9130418537522015e-7 -3.013849124212512e-7 -2.933044113581282e-7
          -3.4782845934347904e-7 -2.9651548010915155e-7 2.9076102613005974e-8 2.935592636336377e-7 1.6154697776338755e-7 -1.0482662287166838e-9
          1.716860204263526e-7 2.989342525148387e-7 -1.1915517701497223e-10 -4.6108183076164755e-9 7.187886020834557e-8 3.2178370822638475e-8
          -5.532021106012819e-8 -1.2222481003534486e-7 -1.9632530358047718e-7 -3.0541156917299055e-7 -3.212737322910105e-7 -1.1570191841266232e-7
          3.8464489103022255e-8 -1.316138931029884e-7 -3.233599964796739e-7 -2.3419675247601406e-7 -9.480501619499451e-8 -1.3586564273960096e-7
          -1.7614644138321351e-7 -3.4415221399212116e-8 1.026989598510371e-7 4.856704500616808e-8 -6.89216665107811e-8 -1.2187787527677233e-7
          -1.2897277695063258e-7 -1.0887756719118898e-7 -1.415442761728595e-7 -3.069249340700621e-7 -3.96322299353105e-7 -2.0103913049229618e-7
          -6.901773326812307e-9 -9.97365736958301e-8 -1.4442180678506752e-7 1.941642522197576e-7 4.0958133711384226e-7 -4.6108183076164755e-9
          9.349385847748799e-11 -1.1680811110482067e-9 2.335662464020933e-8 8.593922353416516e-12 -1.4487119045451264e-7 -3.0072840407520107e-7
          -3.570087225245242e-7 -2.9995835493922095e-7 -1.1582351045603026e-7 -8.101556676900297e-10 -1.5112425716693813e-7 -2.999361148690232e-7
          -1.8041602868919385e-7 -5.747438671421e-10 3.157699435743986e-8 1.7090971510725937e-9 -4.508524319723254e-9 -7.81685949621108e-11
          1.9978657853417443e-9 1.1945527418265264e-9 -3.0131338048694537e-9 1.611969542922559e-9 2.7307026182871226e-8 1.1369353812402154e-9
          -1.4983340359570686e-7 -2.9779223027206255e-7 -3.149277841719196e-7 -3.0190935417992507e-7 -3.594062291807256e-7 -3.01467097568227e-7
          5.785935226366535e-8 2.98427942133163e-7 9.349385847748769e-11 1.0795779410037255e-8 -1.4433542307490773e-7 -1.6031800587459877e-7
          -1.473968066481524e-7 -2.1581666305468524e-7 -3.0124982480084225e-7 -3.393685415932687e-7 -3.139333599201063e-7 -2.087048262694969e-7
          -1.3466626971291348e-7 -2.0280101932182917e-7 -3.133526980196245e-7 -3.6656492872968003e-7 -3.1688277644915905e-7 -1.1875130617522471e-7
          8.593246507358415e-8 1.552715202787289e-7 1.545458402180359e-7 1.490354056693315e-7 1.5595411075013415e-7 1.925158495779622e-7
          1.9797327181760774e-7 1.1157902713386276e-7 3.26894759874076e-8 6.066097883892254e-8 7.626823476653941e-8 -3.971405715160998e-8
          -2.09087068622681e-7 -3.536519713538289e-7 -3.554672012695813e-7 -9.659119429446527e-8 1.2486636184193544e-7 1.0795779410037255e-8
          -1.6928137877241951e-10 -3.052194677788823e-7 -3.573868193047164e-7 -3.0485101064196256e-7 -2.957917164763087e-7 -3.0428549914270786e-7
          -3.0440892097611316e-7 -3.0385226925449585e-7 -3.103058312558274e-7 -3.0529805669224287e-7 -2.7035739527587754e-7 -3.038567901846807e-7
          -5.041691845966018e-7 -6.094623598646197e-7 -3.579040973417133e-7 -1.0904597741283743e-9 2.0938249009188917e-7 3.0470389157667745e-7
          3.160628840005746e-7 3.050175343383734e-7 3.331259095648662e-7 3.043729148142539e-7 1.2274345522073704e-7 -2.851730708067033e-10
          1.4676432608450035e-7 3.0471515860669286e-7 2.1439053041580558e-7 1.2467570165267483e-9 -2.0925984608645523e-7 -3.0350703986675383e-7
          -1.6787258529798231e-7 -6.591199465265807e-10 -1.6928137877241954e-10 -3.911716003447993e-8 -4.1311501606072147e-7 -3.7180877277450473e-7
          -2.2824561937861937e-7 -2.9547274507585523e-7 -3.781959171371445e-7 -2.811209028334196e-7 -1.9485713017195436e-7 -3.1001402716002253e-7
          -4.172830244956503e-7 -3.0735555287686347e-7 -1.9502349916672716e-7 -2.9507875022830623e-7 -4.215556494119005e-7 -3.884885400678095e-7
          -2.410680836212839e-7 -2.4484941497574372e-8 1.875397537771632e-7 3.2128486967677314e-7 3.6266879527217564e-7 2.97609919634291e-7
          1.7811566693203338e-7 5.619346133431704e-8 -2.2324885410050565e-8 -1.160756155226186e-8 3.037984188421053e-8 4.567173387589423e-8
          1.0381083348032336e-8 -9.937914077413185e-8 -1.7371961847005348e-7 -1.0275102971918761e-7 -1.5031001310880895e-8 -3.911716003447993e-8
          1.872292417760035e-10 -3.060307378031779e-7 -1.7878554149151432e-7 9.097208197053229e-10 -1.4795804822658007e-7 -3.0619740274772016e-7
          -1.5461689686106466e-7 7.504248800040897e-10 -1.4612848207789595e-7 -3.060108245849003e-7 -1.8965380949114433e-7 7.512188977938585e-10
          6.301291627633622e-8 1.6522801570967339e-9 -1.7880969194731084e-7 -3.0667175881224637e-7 -2.1023267921306987e-7 -7.148699800742232e-10
          2.1065925205644807e-7 3.062722019813415e-7 1.685064948794504e-7 -6.699373300322961e-10 7.108372720860825e-10 1.0674178176934295e-10
          -1.750243007050187e-7 -3.0778780022514686e-7 -1.8128926681548358e-7 -4.8964918706343775e-11 3.1412841022507575e-8 6.494055183377068e-10
          -4.78601692103644e-9 7.158666617853365e-11 1.872292417759981e-10 1.8484285544508218e-7 7.839313502161995e-8 1.4670800339235826e-7
          2.234445864462169e-7 1.4226001007211603e-7 6.130952506032404e-8 1.3874838220110918e-7 2.2246422670587287e-7 1.6034470378601672e-7
          8.520968024672599e-8 1.298790228931859e-7 2.2253529025423947e-7 2.9136104085872983e-7 2.905597009611049e-7 1.743346968158125e-7
          3.422652338977946e-8 -3.8224324350067285e-8 -2.8433462798412898e-8 7.818349165005779e-8 1.5126199240842798e-7 6.043749288978065e-8
          -3.528503073661284e-8 2.309939769851867e-8 5.623128977810181e-8 -1.1524884291493681e-7 -2.3953580939792743e-7 -6.482441868820007e-8
          1.7400788205220412e-7 2.4208364566124426e-7 1.8014976873027675e-7 2.8953147850657903e-8 -2.998842167770827e-8 1.848428554450822e-7
          3.077693832392092e-7 3.08213995186804e-7 3.079826103992665e-7 3.076793462736518e-7 3.079083202070154e-7 3.0817641211926484e-7
          3.079905019303076e-7 3.0775292509660994e-7 3.0786601707463813e-7 3.082525557901862e-7 3.088353191690485e-7 3.0775303048104e-7
          3.0314441299597534e-7 3.0778258858616674e-7 3.344406791239257e-7 3.082231208163954e-7 1.5423434987071906e-7 1.58727757963936e-10
          -2.631938405080243e-8 -1.5232973322941498e-10 3.7075465330336325e-9 8.711769524533078e-11 3.813256700664272e-9 3.4719318518832715e-10
          -2.4849843215284627e-8 2.891395425904793e-10 1.4783113350215872e-7 3.0781154975072224e-7 3.702657993755831e-7 3.0750212758060366e-7
          9.182877956964636e-8 -2.501625724360288e-10 3.077693832392092e-7 1.847409443682715e-7 2.8717325254700904e-8 8.917098252999256e-8
          1.8385138530883956e-7 1.305080027059349e-7 6.154268191262004e-8 1.0935727012023681e-7 1.540131006680919e-7 7.55715068954923e-8
          5.74959039408729e-9 7.6264452755526e-8 1.53897896630106e-7 1.0543172466812474e-7 3.53696653762087e-8 4.821544726098402e-8
          6.906164778455475e-8 2.3000844409025164e-8 -3.8049991671653274e-8 -6.217388926352883e-8 -4.933501782786275e-8 5.024531740837204e-10
          -1.2043987095929427e-9 -1.4299849593079632e-7 -2.397772300794012e-7 -1.0643799274528225e-7 8.030575910844215e-8 1.4374056851865366e-7
          1.7791438593903262e-7 2.7687516182325917e-7 3.394979706481479e-7 2.646578868905137e-7 1.7289288623550528e-7 1.8474094436827148e-7
          1.8579176462161291e-10 -3.0673142553900923e-7 -1.795715643698427e-7 3.5125039739229117e-10 -1.482771061120333e-7 -3.061941140213219e-7
          -1.5413725345367595e-7 -2.1509263734642153e-10 -1.5253619980058432e-7 -3.0713162585032604e-7 -1.6003242169350786e-7 -2.1692596300515742e-10
          -1.1666347729169327e-7 -3.0578468780681237e-7 -3.6399316963560275e-7 -3.061804020622683e-7 -1.472378643710132e-7 -8.505131406862963e-10
          1.9296695049863436e-8 -3.947198876333961e-10 2.6476761958553834e-8 -1.8922285345365752e-10 -1.8049303776553472e-7 -3.079059794805612e-7
          -1.7589934470140533e-7 5.610911967461275e-10 6.509552838706184e-9 6.137139545420536e-12 1.3911094101433448e-7 3.067345042777951e-7
          3.857873667446492e-7 3.067707290339177e-7 1.8579176462160718e-10 -3.881594504887062e-8 -2.285663778054733e-7 -1.5380049279885477e-7
          -7.349779285350448e-8 -2.4663778079391216e-7 -3.7888505064556057e-7 -1.7590419643393234e-7 4.51850500742304e-8 -3.273704288781445e-8
          -1.447020370771658e-7 -2.5741494250922467e-8 4.5569225633577844e-8 -2.093452373810025e-7 -5.024494365816319e-7 -5.457079252552788e-7
          -3.81752630055534e-7 -5.32154776359889e-8 2.1596298996319872e-7 2.0184223070187075e-7 8.269272868641953e-8 3.678496802323756e-8
          3.966114705434492e-8 6.686346412176174e-8 5.515068021603259e-8 -5.871844367229795e-8 -1.5526182182696977e-7 -1.1499736853172295e-7
          -1.1652328020667885e-9 1.2299443634648946e-7 2.2817410017926725e-7 2.8506621996158806e-7 2.2046985258751956e-7 -3.881594504887062e-8
          -1.6091195305065574e-10 -7.51901658023909e-10 2.8585364937347082e-8 -1.21147663152317e-9 -1.7920479082922024e-7 -3.043046471001025e-7
          -1.7542111488852823e-7 2.157215761240026e-9 2.3141754804939715e-8 1.6155371584263101e-9 5.1661597737555636e-8 2.1679920173587494e-9
          -3.1797722452713304e-7 -6.074578791871967e-7 -5.649577992541095e-7 -3.0433923773407806e-7 6.053555236669031e-8 3.0549364698526127e-7
          2.0636212205870036e-7 2.150623600801129e-9 -6.81312023746427e-8 1.1860993811186172e-9 2.1577198411683483e-7 3.0545946773650543e-7
          8.15661441299859e-11 -3.0337471700684774e-7 -2.0792237806298412e-7 9.259362074860731e-10 3.7657579036327834e-8 2.747420567441223e-9
          -3.32966905527365e-9 1.632242620467579e-9 -1.6091195305065657e-10 9.718566281235964e-9 4.246280348223517e-8 1.554998824907522e-7
          1.8311550492993824e-7 -4.040462757705552e-8 -2.987853270227482e-7 -3.757514053996589e-7 -3.627322510149195e-7 -3.511572521756621e-7
          -3.3697093873178103e-7 -3.161178405331706e-7 -3.641204613486279e-7 -5.565013049469499e-7 -6.873348433380443e-7 -5.506955485318195e-7
          -2.948733268147421e-7 -6.815808447327882e-8 1.575827788989424e-8 -1.56816140327899e-7 -3.49320584483187e-7 -3.2519429993249814e-7
          -1.9080760098989858e-7 -5.2530801969454634e-8 -2.020167892658254e-8 -2.0365800791669874e-7 -3.679397513554064e-7 -2.780868716583087e-7
          -1.6779482241846963e-7 -2.707590572289531e-7 -3.9761655375541683e-7 -3.590042896635189e-7 -2.0615000347679078e-7 9.718566281235962e-9
          5.216931484720505e-11 4.457228177931925e-11 1.9148805432305478e-7 3.002878509928632e-7 5.2349197845393887e-8 -3.006338598821955e-7
          -5.069672769527476e-7 -6.013371642230264e-7 -6.18429632549796e-7 -6.016312020389178e-7 -5.943283927962525e-7 -6.013904549316213e-7
          -6.276866385548437e-7 -6.030067244289534e-7 -4.5714049331698346e-7 -3.0049954145576487e-7 -2.4349546508212836e-7 -2.989557787517511e-7
          -4.797079970203104e-7 -6.004561694987572e-7 -4.759043457980428e-7 -3.009026127723494e-7 -2.703010572758594e-7 -3.0151263563602056e-7
          -3.119503041802806e-7 -3.0181259660770074e-7 -2.712980466173424e-7 -3.003252821107727e-7 -4.6881293098955885e-7 -6.014770417713372e-7
          -5.230336629737441e-7 -3.0026364310795694e-7 5.2169314847204985e-11 -7.334483595765003e-10 1.6380055232187705e-8 1.422464121647957e-7
          2.0354496645665174e-7 2.695506212616028e-8 -2.05196129015391e-7 -3.1058143515671463e-7 -3.240199644102834e-7 -2.803308248885701e-7
          -2.4340106056048774e-7 -2.7711771539494844e-7 -3.1901938029727784e-7 -3.066446461728004e-7 -2.6934779671562e-7 -2.3648311561983947e-7
          -2.175943904609424e-7 -2.2222540881441185e-7 -2.6578635967683425e-7 -3.636874320447962e-7 -4.114375622073149e-7 -3.045456864534076e-7
          -1.417148569088251e-7 -2.164812569931824e-8 2.5784564934195644e-8 -2.9286727249200963e-8 -1.13730343168593e-7 -1.5441462374306556e-7
          -1.9191955017654922e-7 -2.668251036729743e-7 -3.264478833627874e-7 -3.1810448837643504e-7 -2.1759848721000298e-7 -7.334483595765001e-10
          6.664878754303588e-11 1.287916109116217e-9 1.8584814189598895e-9 2.6211373080215462e-9 4.4186763672487365e-9 -3.5347974164455424e-9
          -3.2025180056148367e-8 -9.772113834016693e-10 1.696843687702525e-7 2.898519065126647e-7 1.6941774795168574e-7 -7.375715962556515e-10
          -2.9733516814730712e-8 -8.51859367434475e-10 2.625629081938394e-9 -4.123921657319093e-9 -5.923381775913588e-9 -4.06895173655547e-9
          1.4316799804499268e-10 -5.2826168827338334e-9 -3.2341900689513566e-8 4.4325096982885175e-10 1.745507724874166e-7 2.968356880075419e-7
          1.7415302167449687e-7 3.80256708110937e-10 -3.06051236717867e-8 -1.8655808752354317e-9 3.5364236877252944e-9 -1.4739897206953185e-9
          -3.971700838288002e-9 -3.5827934179196396e-9 6.664878754303596e-11 -6.2310886082266104e-9 -1.3768503623004973e-7 -2.1365981586524883e-7
          -1.6448887208454524e-7 7.949435054134004e-8 2.429294341735635e-7 5.045596097328171e-8 -9.873532491741731e-8 1.94546320643555e-7
          4.601352437554985e-7 2.2786579051771312e-7 -1.1658604981679067e-7 -1.8754428799500276e-7 -7.703732135426895e-8 1.22906452768065e-7
          2.8675062052371287e-7 2.889587680643887e-7 2.5324055399911676e-7 3.0330563693692165e-7 2.944013166565437e-7 8.177489293672338e-8
          -1.3602044087908433e-7 -1.6043149144742398e-7 -1.1544922207526476e-7 -1.2506459606957548e-7 -1.1386026822883022e-7 -6.418893351502844e-9
          7.024748840424956e-8 -1.0873163119730129e-8 -5.699761348397792e-8 1.2465737175097022e-7 2.39707608178444e-7 -6.231088608226612e-9
          -3.8388240323615003e-10 -2.8648849483122886e-7 -3.934468397869351e-7 -2.8625924415521035e-7 7.007396517909041e-8 2.9095764128828187e-7
          -8.203362755321099e-9 -2.8741062317027256e-7 -6.665716175125695e-9 2.929308014312106e-7 7.027837284982742e-8 -2.884228413135319e-7
          -3.9697268045312416e-7 -2.8543155651065193e-7 1.6140118572182094e-8 2.934409944621592e-7 3.3216972082606066e-7 2.9083121201953964e-7
          3.279303823982494e-7 2.9197724606004634e-7 3.148181710278721e-8 -2.8787178678235247e-7 -5.003994479041969e-7 -5.740650473256747e-7
          -4.7683246610971423e-7 -2.861938164914941e-7 -7.964121070619273e-8 2.3255913317680613e-9 -1.8079317029203362e-7 -2.8492973086807957e-7
          3.398367431314841e-8 2.906109791639847e-7 -3.838824032361492e-10 2.4309216352737837e-8 -3.2359691703980054e-7 -4.3250941419902865e-7
          -3.5829860167375106e-7 -1.5683480601277222e-7 -6.728689454894986e-9 -8.659091423892227e-8 -1.950794999319688e-7 -1.3085246610114922e-7
          -3.3790906913118416e-8 -4.377591653453172e-8 -1.3192053606708143e-7 -2.6933780661246034e-7 -3.6176849465744387e-7 -3.149533666888081e-7
          -1.961352084394133e-7 -7.255680564212013e-8 9.452553522579768e-9 3.563580874194675e-9 -4.8202893004156735e-8 -1.0382603752935552e-7
          -1.8558130456933777e-7 -3.157441459920393e-7 -4.1648564583323687e-7 -4.099768881287064e-7 -3.2966615660385624e-7 -2.09001734984094e-7
          -1.6024878250243525e-7 -2.956724583918957e-7 -3.856814580128051e-7 -2.006844767254935e-7 1.6813932414775404e-8 2.430921635273784e-8
          1.5812960648588973e-9 -2.8140241822342066e-7 -3.269713496054342e-7 -2.841508773470047e-7 -3.0196638071395475e-7 -2.788620845148121e-7
          -1.1328221355810461e-7 -2.523313247033988e-9 -1.4388192898480232e-7 -2.782406036101224e-7 -1.464818799617074e-7 1.562271595482137e-9
          -8.394011930351453e-8 -2.831856768199552e-7 -4.7637102511509757e-7 -5.607779505751555e-7 -4.336882395863433e-7 -2.776105840498819e-7
          -2.7505367586699255e-7 -2.8099806350484503e-7 -1.5042429543060893e-7 -2.3849328120468347e-9 4.4067463183078435e-8 -6.234558539477911e-9
          -1.484584490739604e-7 -2.814908417585081e-7 -3.042183699312603e-7 -2.795527814431651e-7 -2.704058241451707e-7 -2.84549821717669e-7
          -3.2975709784105217e-7 -2.772919570639871e-7 1.581296064858899e-9 -1.1927197020495358e-7 -1.9934439449036631e-7 -1.0210441093913828e-7
          -1.1631905240660474e-8 -1.1200676308432371e-7 -1.9260462196875317e-7 -4.280111939257394e-8 8.593276171616158e-8 -5.787396157059904e-8
          -2.5196381245645764e-7 -2.7407931414501636e-7 -2.0228914835400397e-7 -1.1466199680114942e-7 -7.671133194842507e-8 -1.5395062625780355e-7
          -2.5613096583367895e-7 -2.9300343678044553e-7 -2.6244869744233745e-7 -1.6234740616358888e-7 -4.9402503013291356e-8 1.9683071939463867e-8
          8.362981267028927e-8 1.8115821315479749e-7 1.9671229894152076e-7 1.4736095578991629e-8 -1.978728360595719e-7 -2.7421693510095206e-7
          -2.301263417988434e-7 -8.143119640694052e-8 -4.992610040712889e-9 -1.7767169381563024e-7 -3.1169072233570587e-7 -1.1927197020495358e-7
          -2.690170271277402e-7 -4.517371150863539e-9 1.996275507218232e-7 2.672890559809252e-7 1.2233846211704783e-7 -2.845451970697566e-9
          1.241160926168004e-7 2.6686335754268633e-7 1.8903660447010487e-7 -5.470377295107147e-9 -2.1276379844711298e-7 -2.7315551295876106e-7
          -2.6957374802899455e-8 2.645605297336061e-7 3.401281143638903e-7 2.6303895861641577e-7 9.658664201964545e-8 -5.6602722084196215e-9
          1.0986677915022155e-7 2.6706975086534296e-7 2.8985059770671856e-7 2.6682164813814636e-7 2.8659523062342455e-7 2.704195722707852e-7
          1.395429001884606e-7 -4.490719312428755e-9 -6.013721992076222e-8 -5.074872279736985e-9 1.830180529674498e-7 2.6740930225812804e-7
          1.1366622029627385e-8 -2.718591127537595e-7 -2.690170271277402e-7 -3.1738270213918256e-7 2.585300257802521e-7 4.243644528615509e-7
          3.2551088407400303e-7 1.0735962438689768e-7 1.3384686050605157e-8 2.8706008131549575e-7 5.647941415923813e-7 4.829951982920738e-7
          2.6301285950099523e-7 1.2619673330556752e-7 1.3887654247254103e-7 3.6738200976866597e-7 5.756263846140696e-7 5.27522916428879e-7
          3.832722312588343e-7 3.0307495514967596e-7 2.639061038162993e-7 2.4274069297359977e-7 2.8877310349506327e-7 4.511977162541754e-7
          5.649903379404031e-7 4.65126775243213e-7 3.107852875263978e-7 2.6114413415375044e-7 2.584046585297087e-7 2.4476820405871e-7
          2.61152448389972e-7 3.4847506917271236e-7 3.2494525910978417e-7 8.772210904040288e-9 -3.040138509953412e-7 -3.1738270213918256e-7
          0 0 1.2556156949666403e-10 2.5849394142282115e-26 -7.53369416979984e-10 2.0679515313825692e-25
          4.394654932383241e-9 1.6543612251060553e-24 -2.5614560177319452e-8 1.3234889800848443e-23 1.4929270613153353e-7 2.6235424089603697e-7
          1.792752869722661e-7 -6.617444900424222e-24 -1.755274643809824e-7 -2.6235424089603697e-7 -1.7552746427051985e-7 -6.617444900424222e-24
          1.7927528641995332e-7 2.623542408960369e-7 1.4929270933494755e-7 -1.613002194478404e-23 -2.5614578845491016e-8 -2.5849394142282115e-26
          4.394763737998459e-9 4.8467614016778965e-25 -7.540035824997352e-10 8.885729236409477e-27 1.292577569999546e-10 1.0097419586828951e-27
          -2.1542959499992436e-11 -8.077935669463161e-28 0
        </DataArray>
        <DataArray type="Float64" Name="displacement" NumberOfComponents="3" format="ascii" RangeMin="0" RangeMax="0">
          0 0 0 0 0 0
          0 0 0 0 0 0
          0 0 0 0 0 0
          0 0 0 0 0 0
          0 0 0 0 0 0
          0 0 0 0 0 0
          0 0 0 0 0 0
          0 0 0 0 0 0
          0 0 0 0 0 0
          0 0 0 0 0 0
          0 0 0 0 0 0
          0 0 0 0 0 0
          0 0 0 0 0 0
          0 0 0 0 0 0
          0 0 0 0 0 0
          0 0 0 0 0 0
          0 0 0 0 0 0
          0 0 0 0 0 0
          0 0 0 0 0 0
          0 0 0 0 0 0
          0 0 0 0 0 0
          0 0 0 0 0 0
          0 0 0 0 0 0
          0 0 0 0 0 0
          0 0 0 0 0 0
          0 0 0 0 0 0
          0 0 0 0 0 0
          0 0 0 0 0 0
          0 0 0 0 0 0
          0 0 0 0 0 0
          0 0 0 0 0 0
          0 0 0 0 0 0
          0 0 0 0 0 0
          0 0 0 0 0 0
          0 0 0 0 0 0
          0 0 0 0 0 0
          0 0 0 0 0 0
          0 0 0 0 0 0
          0 0 0 0 0 0
          0 0 0 0 0 0
          0 0 0 0 0 0
          0 0 0 0 0 0
          0 0 0 0 0 0
          0 0 0 0 0 0
          0 0 0 0 0 0
          0 0 0 0 0 0
          0 0 0 0 0 0
          0 0 0 0 0 0
          0 0 0 0 0 0
          0 0 0 0 0 0
          0 0 0 0 0 0
          0 0 0 0 0 0
          0 0 0 0 0 0
          0 0 0 0 0 0
          0 0 0 0 0 0
          0 0 0 0 0 0
          0 0 0 0 0 0
          0 0 0 0 0 0
          0 0 0 0 0 0
          0 0 0 0 0 0
          0 0 0 0 0 0
          0 0 0 0 0 0
          0 0 0 0 0 0
          0 0 0 0 0 0
          0 0 0 0 0 0
          0 0 0 0 0 0
          0 0 0 0 0 0
          0 0 0 0 0 0
          0 0 0 0 0 0
          0 0 0 0 0 0
          0 0 0 0 0 0
          0 0 0 0 0 0
          0 0 0 0 0 0
          0 0 0 0 0 0
          0 0 0 0 0 0
          0 0 0 0 0 0
          0 0 0 0 0 0
          0 0 0 0 0 0
          0 0 0 0 0 0
          0 0 0 0 0 0
          0 0 0 0 0 0
          0 0 0 0 0 0
          0 0 0 0 0 0
          0 0 0 0 0 0
          0 0 0 0 0 0
          0 0 0 0 0 0
          0 0 0 0 0 0
          0 0 0 0 0 0
          0 0 0 0 0 0
          0 0 0 0 0 0
          0 0 0 0 0 0
          0 0 0 0 0 0
          0 0 0 0 0 0
          0 0 0 0 0 0
          0 0 0 0 0 0
          0 0 0 0 0 0
          0 0 0 0 0 0
          0 0 0 0 0 0
          0 0 0 0 0 0
          0 0 0 0 0 0
          0 0 0 0 0 0
          0 0 0 0 0 0
          0 0 0 0 0 0
          0 0 0 0 0 0
          0 0 0 0 0 0
          0 0 0 0 0 0
          0 0 0 0 0 0
          0 0 0 0 0 0
          0 0 0 0 0 0
          0 0 0 0 0 0
          0 0 0 0 0 0
          0 0 0 0 0 0
          0 0 0 0 0 0
          0 0 0 0 0 0
          0 0 0 0 0 0
          0 0 0 0 0 0
          0 0 0 0 0 0
          0 0 0 0 0 0
          0 0 0 0 0 0
          0 0 0 0 0 0
          0 0 0 0 0 0
          0 0 0 0 0 0
          0 0 0 0 0 0
          0 0 0 0 0 0
          0 0 0 0 0 0
          0 0 0 0 0 0
          0 0 0 0 0 0
          0 0 0 0 0 0
          0 0 0 0 0 0
          0 0 0 0 0 0
          0 0 0 0 0 0
          0 0 0 0 0 0
          0 0 0 0 0 0
          0 0 0 0 0 0
          0 0 0 0 0 0
          0 0 0 0 0 0
          0 0 0 0 0 0
          0 0 0 0 0 0
          0 0 0 0 0 0
          0 0 0 0 0 0
          0 0 0 0 0 0
          0 0 0 0 0 0
          0 0 0 0 0 0
          0 0 0 0 0 0
          0 0 0 0 0 0
          0 0 0 0 0 0
          0 0 0 0 0 0
          0 0 0 0 0 0
          0 0 0 0 0 0
          0 0 0 0 0 0
          0 0 0 0 0 0
          0 0 0 0 0 0
          0 0 0 0 0 0
          0 0 0 0 0 0
          0 0 0 0 0 0
          0 0 0 0 0 0
          0 0 0 0 0 0
          0 0 0 0 0 0
          0 0 0 0 0 0
          0 0 0 0 0 0
          0 0 0 0 0 0
          0 0 0 0 0 0
          0 0 0 0 0 0
          0 0 0 0 0 0
          0 0 0 0 0 0
          0 0 0 0 0 0
          0 0 0 0 0 0
          0 0 0 0 0 0
          0 0 0 0 0 0
          0 0 0 0 0 0
          0 0 0 0 0 0
          0 0 0 0 0 0
          0 0 0 0 0 0
          0 0 0 0 0 0
          0 0 0 0 0 0
          0 0 0 0 0 0
          0 0 0 0 0 0
          0 0 0 0 0 0
          0 0 0 0 0 0
          0 0 0 0 0 0
          0 0 0 0 0 0
          0 0 0 0 0 0
          0 0 0 0 0 0
          0 0 0 0 0 0
          0 0 0 0 0 0
          0 0 0 0 0 0
          0 0 0 0 0 0
          0 0 0 0 0 0
          0 0 0 0 0 0
          0 0 0 0 0 0
          0 0 0 0 0 0
          0 0 0 0 0 0
          0 0 0 0 0 0
          0 0 0 0 0 0
          0 0 0 0 0 0
          0 0 0 0 0 0
          0 0 0 0 0 0
          0 0 0 0 0 0
          0 0 0 0 0 0
          0 0 0 0 0 0
          0 0 0 0 0 0
          0 0 0 0 0 0
          0 0 0 0 0 0
          0 0 0 0 0 0
          0 0 0 0 0 0
          0 0 0 0 0 0
          0 0 0 0 0 0
          0 0 0 0 0 0
          0 0 0 0 0 0
          0 0 0 0 0 0
          0 0 0 0 0 0
          0 0 0 0 0 0
          0 0 0 0 0 0
          0 0 0 0 0 0
          0 0 0 0 0 0
          0 0 0 0 0 0
          0 0 0 0 0 0
          0 0 0 0 0 0
          0 0 0 0 0 0
          0 0 0 0 0 0
          0 0 0 0 0 0
          0 0 0 0 0 0
          0 0 0 0 0 0
          0 0 0 0 0 0
          0 0 0 0 0 0
          0 0 0 0 0 0
          0 0 0 0 0 0
          0 0 0 0 0 0
          0 0 0 0 0 0
          0 0 0 0 0 0
          0 0 0 0 0 0
          0 0 0 0 0 0
          0 0 0 0 0 0
          0 0 0 0 0 0
          0 0 0 0 0 0
          0 0 0 0 0 0
          0 0 0 0 0 0
          0 0 0 0 0 0
          0 0 0 0 0 0
          0 0 0 0 0 0
          0 0 0 0 0 0
          0 0 0 0 0 0
          0 0 0 0 0 0
          0 0 0 0 0 0
          0 0 0 0 0 0
          0 0 0 0 0 0
          0 0 0 0 0 0
          0 0 0 0 0 0
          0 0 0 0 0 0
          0 0 0 0 0 0
          0 0 0 0 0 0
          0 0 0 0 0 0
          0 0 0 0 0 0
          0 0 0 0 0 0
          0 0 0 0 0 0
          0 0 0 0 0 0
          0 0 0 0 0 0
          0 0 0 0 0 0
          0 0 0 0 0 0
          0 0 0 0 0 0
          0 0 0 0 0 0
          0 0 0 0 0 0
          0 0 0 0 0 0
          0 0 0 0 0 0
          0 0 0 0 0 0
          0 0 0 0 0 0
          0 0 0 0 0 0
          0 0 0 0 0 0
          0 0 0 0 0 0
          0 0 0 0 0 0
          0 0 0 0 0 0
          0 0 0 0 0 0
          0 0 0 0 0 0
          0 0 0 0 0 0
          0 0 0 0 0 0
          0 0 0 0 0 0
          0 0 0 0 0 0
          0 0 0 0 0 0
          0 0 0 0 0 0
          0 0 0 0 0 0
          0 0 0 0 0 0
          0 0 0 0 0 0
          0 0 0 0 0 0
          0 0 0 0 0 0
          0 0 0 0 0 0
          0 0 0 0 0 0
          0 0 0 0 0 0
          0 0 0 0 0 0
          0 0 0 0 0 0
          0 0 0 0 0 0
          0 0 0 0 0 0
          0 0 0 0 0 0
          0 0 0 0 0 0
          0 0 0 0 0 0
          0 0 0 0 0 0
          0 0 0 0 0 0
          0 0 0 0 0 0
          0 0 0 0 0 0
          0 0 0 0 0 0
          0 0 0 0 0 0
          0 0 0 0 0 0
          0 0 0 0 0 0
          0 0 0 0 0 0
          0 0 0 0 0 0
          0 0 0 0 0 0
          0 0 0 0 0 0
          0 0 0 0 0 0
          0 0 0 0 0 0
          0 0 0 0 0 0
          0 0 0 0 0 0
          0 0 0 0 0 0
          0 0 0 0 0 0
          0 0 0 0 0 0
          0 0 0 0 0 0
          0 0 0 0 0 0
          0 0 0 0 0 0
          0 0 0 0 0 0
          0 0 0 0 0 0
          0 0 0 0 0 0
          0 0 0 0 0 0
          0 0 0 0 0 0
          0 0 0 0 0 0
          0 0 0 0 0 0
          0 0 0 0 0 0
          0 0 0 0 0 0
          0 0 0 0 0 0
          0 0 0 0 0 0
          0 0 0 0 0 0
          0 0 0 0 0 0
          0 0 0 0 0 0
          0 0 0 0 0 0
          0 0 0 0 0 0
          0 0 0 0 0 0
          0 0 0 0 0 0
          0 0 0 0 0 0
          0 0 0 0 0 0
          0 0 0 0 0 0
          0 0 0 0 0 0
          0 0 0 0 0 0
          0 0 0 0 0 0
          0 0 0 0 0 0
          0 0 0 0 0 0
          0 0 0 0 0 0
          0 0 0 0 0 0
          0 0 0 0 0 0
          0 0 0 0 0 0
          0 0 0 0 0 0
          0 0 0 0 0 0
          0 0 0 0 0 0
          0 0 0 0 0 0
          0 0 0 0 0 0
          0 0 0 0 0 0
          0 0 0 0 0 0
          0 0 0 0 0 0
          0 0 0 0 0 0
          0 0 0 0 0 0
          0 0 0 0 0 0
          0 0 0 0 0 0
          0 0 0 0 0 0
          0 0 0 0 0 0
          0 0 0 0 0 0
          0 0 0 0 0 0
          0 0 0 0 0 0
          0 0 0 0 0 0
          0 0 0 0 0 0
          0 0 0 0 0 0
          0 0 0 0 0 0
          0 0 0 0 0 0
          0 0 0 0 0 0
          0 0 0 0 0 0
          0 0 0 0 0 0
          0 0 0 0 0 0
          0 0 0 0 0 0
          0 0 0 0 0 0
          0 0 0 0 0 0
          0 0 0 0 0 0
          0 0 0 0 0 0
          0 0 0 0 0 0
          0 0 0 0 0 0
          0 0 0 0 0 0
          0 0 0 0 0 0
          0 0 0 0 0 0
          0 0 0 0 0 0
          0 0 0 0 0 0
          0 0 0 0 0 0
          0 0 0 0 0 0
          0 0 0 0 0 0
          0 0 0 0 0 0
          0 0 0 0 0 0
          0 0 0 0 0 0
          0 0 0 0 0 0
          0 0 0 0 0 0
          0 0 0 0 0 0
          0 0 0 0 0 0
          0 0 0 0 0 0
          0 0 0 0 0 0
          0 0 0 0 0 0
          0 0 0 0 0 0
          0 0 0 0 0 0
          0 0 0 0 0 0
          0 0 0 0 0 0
          0 0 0 0 0 0
          0 0 0 0 0 0
          0 0 0 0 0 0
          0 0 0 0 0 0
          0 0 0 0 0 0
          0 0 0 0 0 0
          0 0 0 0 0 0
          0 0 0 0 0 0
          0 0 0 0 0 0
          0 0 0 0 0 0
          0 0 0 0 0 0
          0 0 0 0 0 0
          0 0 0 0 0 0
          0 0 0 0 0 0
          0 0 0 0 0 0
          0 0 0 0 0 0
          0 0 0 0 0 0
          0 0 0 0 0 0
          0 0 0 0 0 0
          0 0 0 0 0 0
          0 0 0 0 0 0
          0 0 0 0 0 0
          0 0 0 0 0 0
          0 0 0 0 0 0
          0 0 0 0 0 0
          0 0 0 0 0 0
          0 0 0 0 0 0
          0 0 0 0 0 0
          0 0 0 0 0 0
          0 0 0 0 0 0
          0 0 0 0 0 0
          0 0 0 0 0 0
          0 0 0 0 0 0
          0 0 0 0 0 0
          0 0 0 0 0 0
          0 0 0 0 0 0
          0 0 0 0 0 0
          0 0 0 0 0 0
          0 0 0 0 0 0
          0 0 0 0 0 0
          0 0 0 0 0 0
          0 0 0 0 0 0
          0 0 0 0 0 0
          0 0 0 0 0 0
          0 0 0 0 0 0
          0 0 0 0 0 0
          0 0 0 0 0 0
          0 0 0 0 0 0
          0 0 0 0 0 0
          0 0 0 0 0 0
          0 0 0 0 0 0
          0 0 0 0 0 0
          0 0 0 0 0 0
          0 0 0 0 0 0
          0 0 0 0 0 0
          0 0 0 0 0 0
          0 0 0 0 0 0
          0 0 0 0 0 0
          0 0 0 0 0 0
          0 0 0 0 0 0
          0 0 0 0 0 0
          0 0 0 0 0 0
          0 0 0 0 0 0
          0 0 0 0 0 0
          0 0 0 0 0 0
          0 0 0 0 0 0
          0 0 0 0 0 0
          0 0 0 0 0 0
          0 0 0 0 0 0
          0 0 0 0 0 0
          0 0 0 0 0 0
          0 0 0 0 0 0
          0 0 0 0 0 0
          0 0 0 0 0 0
          0 0 0 0 0 0
          0 0 0 0 0 0
          0 0 0 0 0 0
          0 0 0 0 0 0
          0 0 0 0 0 0
          0 0 0 0 0 0
          0 0 0 0 0 0
          0 0 0 0 0 0
          0 0 0 0 0 0
          0 0 0 0 0 0
          0 0 0 0 0 0
          0 0 0 0 0 0
          0 0 0 0 0 0
          0 0 0 0 0 0
          0 0 0 0 0 0
          0 0 0 0 0 0
          0 0 0 0 0 0
          0 0 0 0 0 0
          0 0 0 0 0 0
          0 0 0 0 0 0
          0 0 0 0 0 0
          0 0 0 0 0 0
          0 0 0 0 0 0
          0 0 0 0 0 0
          0 0 0 0 0 0
          0 0 0 0 0 0
          0 0 0 0 0 0
          0 0 0 0 0 0
          0 0 0 0 0 0
          0 0 0 0 0 0
          0 0 0 0 0 0
          0 0 0 0 0 0
          0 0 0 0 0 0
          0 0 0 0 0 0
          0 0 0 0 0 0
          0 0 0 0 0 0
          0 0 0 0 0 0
          0 0 0 0 0 0
          0 0 0 0 0 0
          0 0 0 0 0 0
          0 0 0 0 0 0
          0 0 0 0 0 0
          0 0 0 0 0 0
          0 0 0 0 0 0
          0 0 0 0 0 0
          0 0 0 0 0 0
          0 0 0 0 0 0
          0 0 0 0 0 0
          0 0 0 0 0 0
          0 0 0 0 0 0
          0 0 0 0 0 0
          0 0 0 0 0 0
          0 0 0 0 0 0
          0 0 0 0 0 0
          0 0 0 0 0 0
          0 0 0 0 0 0
          0 0 0 0 0 0
          0 0 0 0 0 0
          0 0 0 0 0 0
          0 0 0 0 0 0
          0 0 0 0 0 0
          0 0 0 0 0 0
          0 0 0 0 0 0
          0 0 0 0 0 0
          0 0 0 0 0 0
          0 0 0 0 0 0
          0 0 0 0 0 0
          0 0 0 0 0 0
          0 0 0 0 0 0
          0 0 0
          <InformationKey name="L2_NORM_RANGE" location="vtkDataArray" length="2">
            <Value index="0">
              0
            </Value>
            <Value index="1">
              0
            </Value>
          </InformationKey>
        </DataArray>
        <DataArray type="Float64" Name="displacement_x" format="ascii" RangeMin="0" RangeMax="0">
          0 0 0 0 0 0
          0 0 0 0 0 0
          0 0 0 0 0 0
          0 0 0 0 0 0
          0 0 0 0 0 0
          0 0 0 0 0 0
          0 0 0 0 0 0
          0 0 0 0 0 0
          0 0 0 0 0 0
          0 0 0 0 0 0
          0 0 0 0 0 0
          0 0 0 0 0 0
          0 0 0 0 0 0
          0 0 0 0 0 0
          0 0 0 0 0 0
          0 0 0 0 0 0
          0 0 0 0 0 0
          0 0 0 0 0 0
          0 0 0 0 0 0
          0 0 0 0 0 0
          0 0 0 0 0 0
          0 0 0 0 0 0
          0 0 0 0 0 0
          0 0 0 0 0 0
          0 0 0 0 0 0
          0 0 0 0 0 0
          0 0 0 0 0 0
          0 0 0 0 0 0
          0 0 0 0 0 0
          0 0 0 0 0 0
          0 0 0 0 0 0
          0 0 0 0 0 0
          0 0 0 0 0 0
          0 0 0 0 0 0
          0 0 0 0 0 0
          0 0 0 0 0 0
          0 0 0 0 0 0
          0 0 0 0 0 0
          0 0 0 0 0 0
          0 0 0 0 0 0
          0 0 0 0 0 0
          0 0 0 0 0 0
          0 0 0 0 0 0
          0 0 0 0 0 0
          0 0 0 0 0 0
          0 0 0 0 0 0
          0 0 0 0 0 0
          0 0 0 0 0 0
          0 0 0 0 0 0
          0 0 0 0 0 0
          0 0 0 0 0 0
          0 0 0 0 0 0
          0 0 0 0 0 0
          0 0 0 0 0 0
          0 0 0 0 0 0
          0 0 0 0 0 0
          0 0 0 0 0 0
          0 0 0 0 0 0
          0 0 0 0 0 0
          0 0 0 0 0 0
          0 0 0 0 0 0
          0 0 0 0 0 0
          0 0 0 0 0 0
          0 0 0 0 0 0
          0 0 0 0 0 0
          0 0 0 0 0 0
          0 0 0 0 0 0
          0 0 0 0 0 0
          0 0 0 0 0 0
          0 0 0 0 0 0
          0 0 0 0 0 0
          0 0 0 0 0 0
          0 0 0 0 0 0
          0 0 0 0 0 0
          0 0 0 0 0 0
          0 0 0 0 0 0
          0 0 0 0 0 0
          0 0 0 0 0 0
          0 0 0 0 0 0
          0 0 0 0 0 0
          0 0 0 0 0 0
          0 0 0 0 0 0
          0 0 0 0 0 0
          0 0 0 0 0 0
          0 0 0 0 0 0
          0 0 0 0 0 0
          0 0 0 0 0 0
          0 0 0 0 0 0
          0 0 0 0 0 0
          0 0 0 0 0 0
          0 0 0 0 0 0
          0 0 0 0 0 0
          0 0 0 0 0 0
          0 0 0 0 0 0
          0 0 0 0 0 0
          0 0 0 0 0 0
          0 0 0 0 0 0
          0 0 0 0 0 0
          0 0 0 0 0 0
          0 0 0 0 0 0
          0 0 0 0 0 0
          0 0 0 0 0 0
          0 0 0 0 0 0
          0 0 0 0 0 0
          0 0 0 0 0 0
          0 0 0 0 0 0
          0 0 0 0 0 0
          0 0 0 0 0 0
          0 0 0 0 0 0
          0 0 0 0 0 0
          0 0 0 0 0 0
          0 0 0 0 0 0
          0 0 0 0 0 0
          0 0 0 0 0 0
          0 0 0 0 0 0
          0 0 0 0 0 0
          0 0 0 0 0 0
          0 0 0 0 0 0
          0 0 0 0 0 0
          0 0 0 0 0 0
          0 0 0 0 0 0
          0 0 0 0 0 0
          0 0 0 0 0 0
          0 0 0 0 0 0
          0 0 0 0 0 0
          0 0 0 0 0 0
          0 0 0 0 0 0
          0 0 0 0 0 0
          0 0 0 0 0 0
          0 0 0 0 0 0
          0 0 0 0 0 0
          0 0 0 0 0 0
          0 0 0 0 0 0
          0 0 0 0 0 0
          0 0 0 0 0 0
          0 0 0 0 0 0
          0 0 0 0 0 0
          0 0 0 0 0 0
          0 0 0 0 0 0
          0 0 0 0 0 0
          0 0 0 0 0 0
          0 0 0 0 0 0
          0 0 0 0 0 0
          0 0 0 0 0 0
          0 0 0 0 0 0
          0 0 0 0 0 0
          0 0 0 0 0 0
          0 0 0 0 0 0
          0 0 0 0 0 0
          0 0 0 0 0 0
          0 0 0 0 0 0
          0 0 0 0 0 0
          0 0 0 0 0 0
          0 0 0 0 0 0
          0 0 0 0 0 0
          0 0 0 0 0 0
          0 0 0 0 0 0
          0 0 0 0 0 0
          0 0 0 0 0 0
          0 0 0 0 0 0
          0 0 0 0 0 0
          0 0 0 0 0 0
          0 0 0 0 0 0
          0 0 0 0 0 0
          0 0 0 0 0 0
          0 0 0 0 0 0
          0 0 0 0 0 0
          0 0 0 0 0 0
          0 0 0 0 0 0
          0 0 0 0 0 0
          0 0 0 0 0 0
          0 0 0 0 0 0
          0 0 0 0 0 0
          0 0 0 0 0 0
          0 0 0 0 0 0
          0 0 0 0 0 0
          0 0 0 0 0 0
          0 0 0 0 0 0
          0 0 0 0 0 0
          0 0 0 0 0 0
          0 0 0 0 0 0
          0 0 0
        </DataArray>
        <DataArray type="Float64" Name="displacement_y" format="ascii" RangeMin="0" RangeMax="0">
          0 0 0 0 0 0
          0 0 0 0 0 0
          0 0 0 0 0 0
          0 0 0 0 0 0
          0 0 0 0 0 0
          0 0 0 0 0 0
          0 0 0 0 0 0
          0 0 0 0 0 0
          0 0 0 0 0 0
          0 0 0 0 0 0
          0 0 0 0 0 0
          0 0 0 0 0 0
          0 0 0 0 0 0
          0 0 0 0 0 0
          0 0 0 0 0 0
          0 0 0 0 0 0
          0 0 0 0 0 0
          0 0 0 0 0 0
          0 0 0 0 0 0
          0 0 0 0 0 0
          0 0 0 0 0 0
          0 0 0 0 0 0
          0 0 0 0 0 0
          0 0 0 0 0 0
          0 0 0 0 0 0
          0 0 0 0 0 0
          0 0 0 0 0 0
          0 0 0 0 0 0
          0 0 0 0 0 0
          0 0 0 0 0 0
          0 0 0 0 0 0
          0 0 0 0 0 0
          0 0 0 0 0 0
          0 0 0 0 0 0
          0 0 0 0 0 0
          0 0 0 0 0 0
          0 0 0 0 0 0
          0 0 0 0 0 0
          0 0 0 0 0 0
          0 0 0 0 0 0
          0 0 0 0 0 0
          0 0 0 0 0 0
          0 0 0 0 0 0
          0 0 0 0 0 0
          0 0 0 0 0 0
          0 0 0 0 0 0
          0 0 0 0 0 0
          0 0 0 0 0 0
          0 0 0 0 0 0
          0 0 0 0 0 0
          0 0 0 0 0 0
          0 0 0 0 0 0
          0 0 0 0 0 0
          0 0 0 0 0 0
          0 0 0 0 0 0
          0 0 0 0 0 0
          0 0 0 0 0 0
          0 0 0 0 0 0
          0 0 0 0 0 0
          0 0 0 0 0 0
          0 0 0 0 0 0
          0 0 0 0 0 0
          0 0 0 0 0 0
          0 0 0 0 0 0
          0 0 0 0 0 0
          0 0 0 0 0 0
          0 0 0 0 0 0
          0 0 0 0 0 0
          0 0 0 0 0 0
          0 0 0 0 0 0
          0 0 0 0 0 0
          0 0 0 0 0 0
          0 0 0 0 0 0
          0 0 0 0 0 0
          0 0 0 0 0 0
          0 0 0 0 0 0
          0 0 0 0 0 0
          0 0 0 0 0 0
          0 0 0 0 0 0
          0 0 0 0 0 0
          0 0 0 0 0 0
          0 0 0 0 0 0
          0 0 0 0 0 0
          0 0 0 0 0 0
          0 0 0 0 0 0
          0 0 0 0 0 0
          0 0 0 0 0 0
          0 0 0 0 0 0
          0 0 0 0 0 0
          0 0 0 0 0 0
          0 0 0 0 0 0
          0 0 0 0 0 0
          0 0 0 0 0 0
          0 0 0 0 0 0
          0 0 0 0 0 0
          0 0 0 0 0 0
          0 0 0 0 0 0
          0 0 0 0 0 0
          0 0 0 0 0 0
          0 0 0 0 0 0
          0 0 0 0 0 0
          0 0 0 0 0 0
          0 0 0 0 0 0
          0 0 0 0 0 0
          0 0 0 0 0 0
          0 0 0 0 0 0
          0 0 0 0 0 0
          0 0 0 0 0 0
          0 0 0 0 0 0
          0 0 0 0 0 0
          0 0 0 0 0 0
          0 0 0 0 0 0
          0 0 0 0 0 0
          0 0 0 0 0 0
          0 0 0 0 0 0
          0 0 0 0 0 0
          0 0 0 0 0 0
          0 0 0 0 0 0
          0 0 0 0 0 0
          0 0 0 0 0 0
          0 0 0 0 0 0
          0 0 0 0 0 0
          0 0 0 0 0 0
          0 0 0 0 0 0
          0 0 0 0 0 0
          0 0 0 0 0 0
          0 0 0 0 0 0
          0 0 0 0 0 0
          0 0 0 0 0 0
          0 0 0 0 0 0
          0 0 0 0 0 0
          0 0 0 0 0 0
          0 0 0 0 0 0
          0 0 0 0 0 0
          0 0 0 0 0 0
          0 0 0 0 0 0
          0 0 0 0 0 0
          0 0 0 0 0 0
          0 0 0 0 0 0
          0 0 0 0 0 0
          0 0 0 0 0 0
          0 0 0 0 0 0
          0 0 0 0 0 0
          0 0 0 0 0 0
          0 0 0 0 0 0
          0 0 0 0 0 0
          0 0 0 0 0 0
          0 0 0 0 0 0
          0 0 0 0 0 0
          0 0 0 0 0 0
          0 0 0 0 0 0
          0 0 0 0 0 0
          0 0 0 0 0 0
          0 0 0 0 0 0
          0 0 0 0 0 0
          0 0 0 0 0 0
          0 0 0 0 0 0
          0 0 0 0 0 0
          0 0 0 0 0 0
          0 0 0 0 0 0
          0 0 0 0 0 0
          0 0 0 0 0 0
          0 0 0 0 0 0
          0 0 0 0 0 0
          0 0 0 0 0 0
          0 0 0 0 0 0
          0 0 0 0 0 0
          0 0 0 0 0 0
          0 0 0 0 0 0
          0 0 0 0 0 0
          0 0 0 0 0 0
          0 0 0 0 0 0
          0 0 0 0 0 0
          0 0 0 0 0 0
          0 0 0 0 0 0
          0 0 0 0 0 0
          0 0 0 0 0 0
          0 0 0 0 0 0
          0 0 0 0 0 0
          0 0 0 0 0 0
          0 0 0 0 0 0
          0 0 0
        </DataArray>
        <DataArray type="Float64" Name="s_xx" format="ascii" RangeMin="-6.873348433380443e-7" RangeMax="5.792561468202398e-7">
          0 0 1.2556156949666403e-10 2.5849394142282115e-26 -7.53369416979984e-10 2.0679515313825692e-25
          4.394654932383241e-9 1.6543612251060553e-24 -2.5614560177319452e-8 1.3234889800848443e-23 1.4929270613153353e-7 2.6235424089603697e-7
          1.792752869722661e-7 -6.617444900424222e-24 -1.755274643809824e-7 -2.6235424089603697e-7 -1.7552746427051985e-7 -6.617444900424222e-24
          1.7927528641995332e-7 2.623542408960369e-7 1.4929270933494755e-7 -1.613002194478404e-23 -2.5614578845491016e-8 -2.5849394142282115e-26
          4.394763737998459e-9 4.8467614016778965e-25 -7.540035824997352e-10 8.885729236409477e-27 1.292577569999546e-10 1.0097419586828951e-27
          -2.1542959499992436e-11 -8.077935669463161e-28 0 3.1737544987949507e-7 3.038673017592444e-7 3.170415682400152e-7
          3.337724762091e-7 3.3093425255379123e-7 3.2002037877598305e-7 3.125243363775697e-7 2.5119367690881e-7 7.877595191996308e-8
          -7.748392212347908e-8 -9.034102875602434e-8 -4.117740496248561e-8 -1.137508772767573e-8 -9.911887682346361e-9 -4.5765615457249145e-8
          -3.5035725425123816e-8 1.0617832804128994e-7 2.5262208158062084e-7 2.790410718314973e-7 2.7837746185721284e-7 3.435734147210603e-7
          3.01715665072912e-7 -2.0109052437360014e-8 -2.5267479532773725e-7 -2.6755621116201393e-8 3.0711184988111563e-7 3.98390997348082e-7
          3.1644871947259887e-7 1.3065191444256739e-7 -1.447880722508278e-10 8.291324159790588e-8 2.365214915496252e-7 3.1737544987949507e-7
          2.690185688864742e-7 2.718902676729768e-7 2.6594030091580015e-7 2.655327231440525e-7 2.850315888868418e-7 2.6845628314346814e-7
          1.598261909132317e-7 -2.957735887470658e-9 -1.819945453422418e-7 -2.695735795655728e-7 -1.5798418067195466e-7 7.245151506201176e-10
          5.450337171415896e-8 2.1071693600007378e-9 -1.577093115705157e-7 -2.705682524797372e-7 -1.8209183477001083e-7 -3.2614006034743465e-9
          1.549417078577342e-7 2.6927976153524215e-7 3.165150313506768e-7 2.723476843674142e-7 1.1247788764883078e-7 3.272607025130057e-9
          1.1109880832651576e-7 2.7120050880881676e-7 3.188217257278624e-7 2.6921558261190913e-7 1.3763520298921404e-7 3.0780513189541123e-11
          -6.764749116275173e-8 1.614257116049328e-10 2.6901856888647414e-7 1.193570970928725e-7 3.134109145148433e-7 1.2302679966306564e-7
          -1.086063184584589e-7 -3.8299510845728935e-8 8.831097141328292e-8 2.558887723060402e-8 -7.773504066140063e-8 -7.293002953036616e-8
          -2.8932294753936028e-8 -1.4678041709753612e-8 1.4341629805490112e-8 1.0263561999510439e-7 1.518409799880557e-7 6.359476091331047e-8
          -5.819045407247933e-8 -1.0960208181266164e-7 -9.450162785443576e-8 -1.6750597745000857e-8 1.0811677181305904e-7 2.6456624411716e-7
          3.3866678550229936e-7 2.1648736230347437e-7 9.512038082741231e-8 1.7165824738084024e-7 2.7532646963662813e-7 2.3535055526764592e-7
          1.3023504119254104e-7 3.848446432996104e-8 1.699519671009126e-9 6.148090220678864e-8 1.2998222399488225e-7 1.193570970928725e-7
          -1.5864112000810168e-9 2.771885935343264e-7 3.1432933898436594e-8 -2.7832384374078647e-7 -1.9155219301637853e-7 2.7909962566160204e-10
          5.701247739335279e-9 1.7256556344141548e-9 1.6536372762066994e-7 2.836429980669009e-7 1.4359100134190544e-7 2.1475468287930744e-11
          1.0774815846865284e-7 2.8131150497379325e-7 3.3525196961450206e-7 2.8451783241763175e-7 1.4405737341003505e-7 2.7331323882665013e-9
          -5.0592350851119034e-8 -2.7757964498622813e-11 1.703182293917507e-7 2.7567100962621144e-7 1.3125598114746622e-7 -2.770312240640438e-9
          1.3374867326573596e-7 2.79477025429048e-7 1.730788320117481e-7 -2.2400490384763037e-9 -6.327375977393776e-8 -1.021213525176541e-10
          1.9719504506790268e-7 2.7967964621086696e-7 -1.5864112000810125e-9 -2.4660310448161513e-8 -2.3908627544049434e-8 6.013249255619722e-8
          1.508357051489982e-7 1.715736655307736e-7 1.397773913047291e-7 7.287790007407072e-8 4.872643935858272e-8 1.4517425667804966e-7
          2.1732679797772926e-7 1.2028950920287929e-7 2.238153526836075e-8 9.192202108903459e-8 2.11244945456699e-7 2.626842871631521e-7
          2.564664291031176e-7 2.0281775417131918e-7 1.5427015625470741e-7 1.633555292402332e-7 1.396227094160945e-7 -7.3794669295106885e-9
          -1.6446522330206322e-7 -2.1844878320704384e-7 -1.56822117458137e-7 3.292280313097306e-8 1.695576499356575e-7 7.185409433128752e-8
          -6.952488892749106e-8 -6.391632508603249e-8 -7.009434223832791e-9 5.506563579612055e-9 -6.87487929029762e-9 -2.466031044816151e-8
          4.009289910398233e-10 -2.9026651212498306e-7 1.0182785369886067e-7 5.792561468202398e-7 5.44590487596823e-7 2.8916211365711717e-7
          1.0430226262962978e-7 -1.7065884196071802e-9 -2.058196242456125e-8 -2.982059898722773e-9 4.349186444178745e-10 -1.284370496360532e-9
          9.06728977720759e-10 -4.1423810992991305e-9 -2.7582298893381125e-8 -4.684711908251442e-9 1.292786923523638e-7 2.8991406183434216e-7
          3.928275444835613e-7 2.889719387326469e-7 -1.7069995698577584e-7 -5.801871904296516e-7 -5.334888093569253e-7 -2.8979015707122366e-7
          -1.0827657687617322e-7 -2.9147449666128577e-9 1.2328662462618567e-8 2.579228160097902e-9 3.296253487440205e-8 3.403273866124878e-10
          -1.9842564952218928e-7 -2.8963793570353595e-7 4.009289910398224e-10 7.609306634024631e-9 -2.118574197470289e-7 4.8742804769858424e-8
          3.843713871252325e-7 3.899897342596394e-7 2.1126474089190056e-7 -6.136698259162129e-9 -1.5458759062793126e-7 -1.2646094364878916e-7
          -5.745131756472163e-8 -8.32532726187144e-8 -1.4714158531290873e-7 -1.9239103214944594e-7 -2.3374486707453286e-7 -2.859463440343763e-7
          -2.260961738136629e-7 6.870493280292084e-8 3.545412978801048e-7 3.874972434826187e-7 1.8973167070787945e-7 -2.165965193466962e-7
          -5.464007231964871e-7 -5.145943373568726e-7 -3.445235875923281e-7 -2.595346996673299e-7 -1.5929622005195208e-7 5.652330478373124e-8
          2.2086768674806587e-7 1.6668073774939758e-7 2.75154971953414e-8 -6.307499550648767e-8 -7.855547935921739e-8 7.609306634024631e-9
          -1.1915517701497241e-10 2.5217763558332045e-9 -5.2944461473803e-9 -3.9844440751344714e-9 2.6035161184091755e-8 -3.1097065541351174e-9
          -1.7929312347424839e-7 -2.9605494610978463e-7 -1.4693503099428032e-7 9.246854663474146e-10 -1.1961773313381873e-7 -2.961549088182263e-7
          -3.162794636103229e-7 -2.938499263414952e-7 -3.427248258431299e-7 -2.9449576981760136e-7 1.9245634032716232e-8 2.929227636157961e-7
          2.209589968396117e-7 -2.2469731138014687e-9 -1.8229645306240786e-7 -2.9130418537522015e-7 -3.013849124212512e-7 -2.933044113581282e-7
          -3.4782845934347904e-7 -2.9651548010915155e-7 2.9076102613005974e-8 2.935592636336377e-7 1.6154697776338755e-7 -1.0482662287166838e-9
          1.716860204263526e-7 2.989342525148387e-7 -1.1915517701497223e-10 -4.6108183076164755e-9 7.187886020834557e-8 3.2178370822638475e-8
          -5.532021106012819e-8 -1.2222481003534486e-7 -1.9632530358047718e-7 -3.0541156917299055e-7 -3.212737322910105e-7 -1.1570191841266232e-7
          3.8464489103022255e-8 -1.316138931029884e-7 -3.233599964796739e-7 -2.3419675247601406e-7 -9.480501619499451e-8 -1.3586564273960096e-7
          -1.7614644138321351e-7 -3.4415221399212116e-8 1.026989598510371e-7 4.856704500616808e-8 -6.89216665107811e-8 -1.2187787527677233e-7
          -1.2897277695063258e-7 -1.0887756719118898e-7 -1.415442761728595e-7 -3.069249340700621e-7 -3.96322299353105e-7 -2.0103913049229618e-7
          -6.901773326812307e-9 -9.97365736958301e-8 -1.4442180678506752e-7 1.941642522197576e-7 4.0958133711384226e-7 -4.6108183076164755e-9
          9.349385847748799e-11 -1.1680811110482067e-9 2.335662464020933e-8 8.593922353416516e-12 -1.4487119045451264e-7 -3.0072840407520107e-7
          -3.570087225245242e-7 -2.9995835493922095e-7 -1.1582351045603026e-7 -8.101556676900297e-10 -1.5112425716693813e-7 -2.999361148690232e-7
          -1.8041602868919385e-7 -5.747438671421e-10 3.157699435743986e-8 1.7090971510725937e-9 -4.508524319723254e-9 -7.81685949621108e-11
          1.9978657853417443e-9 1.1945527418265264e-9 -3.0131338048694537e-9 1.611969542922559e-9 2.7307026182871226e-8 1.1369353812402154e-9
          -1.4983340359570686e-7 -2.9779223027206255e-7 -3.149277841719196e-7 -3.0190935417992507e-7 -3.594062291807256e-7 -3.01467097568227e-7
          5.785935226366535e-8 2.98427942133163e-7 9.349385847748769e-11 1.0795779410037255e-8 -1.4433542307490773e-7 -1.6031800587459877e-7
          -1.473968066481524e-7 -2.1581666305468524e-7 -3.0124982480084225e-7 -3.393685415932687e-7 -3.139333599201063e-7 -2.087048262694969e-7
          -1.3466626971291348e-7 -2.0280101932182917e-7 -3.133526980196245e-7 -3.6656492872968003e-7 -3.1688277644915905e-7 -1.1875130617522471e-7
          8.593246507358415e-8 1.552715202787289e-7 1.545458402180359e-7 1.490354056693315e-7 1.5595411075013415e-7 1.925158495779622e-7
          1.9797327181760774e-7 1.1157902713386276e-7 3.26894759874076e-8 6.066097883892254e-8 7.626823476653941e-8 -3.971405715160998e-8
          -2.09087068622681e-7 -3.536519713538289e-7 -3.554672012695813e-7 -9.659119429446527e-8 1.2486636184193544e-7 1.0795779410037255e-8
          -1.6928137877241951e-10 -3.052194677788823e-7 -3.573868193047164e-7 -3.0485101064196256e-7 -2.957917164763087e-7 -3.0428549914270786e-7
          -3.0440892097611316e-7 -3.0385226925449585e-7 -3.103058312558274e-7 -3.0529805669224287e-7 -2.7035739527587754e-7 -3.038567901846807e-7
          -5.041691845966018e-7 -6.094623598646197e-7 -3.579040973417133e-7 -1.0904597741283743e-9 2.0938249009188917e-7 3.0470389157667745e-7
          3.160628840005746e-7 3.050175343383734e-7 3.331259095648662e-7 3.043729148142539e-7 1.2274345522073704e-7 -2.851730708067033e-10
          1.4676432608450035e-7 3.0471515860669286e-7 2.1439053041580558e-7 1.2467570165267483e-9 -2.0925984608645523e-7 -3.0350703986675383e-7
          -1.6787258529798231e-7 -6.591199465265807e-10 -1.6928137877241954e-10 -3.911716003447993e-8 -4.1311501606072147e-7 -3.7180877277450473e-7
          -2.2824561937861937e-7 -2.9547274507585523e-7 -3.781959171371445e-7 -2.811209028334196e-7 -1.9485713017195436e-7 -3.1001402716002253e-7
          -4.172830244956503e-7 -3.0735555287686347e-7 -1.9502349916672716e-7 -2.9507875022830623e-7 -4.215556494119005e-7 -3.884885400678095e-7
          -2.410680836212839e-7 -2.4484941497574372e-8 1.875397537771632e-7 3.2128486967677314e-7 3.6266879527217564e-7 2.97609919634291e-7
          1.7811566693203338e-7 5.619346133431704e-8 -2.2324885410050565e-8 -1.160756155226186e-8 3.037984188421053e-8 4.567173387589423e-8
          1.0381083348032336e-8 -9.937914077413185e-8 -1.7371961847005348e-7 -1.0275102971918761e-7 -1.5031001310880895e-8 -3.911716003447993e-8
          1.872292417760035e-10 -3.060307378031779e-7 -1.7878554149151432e-7 9.097208197053229e-10 -1.4795804822658007e-7 -3.0619740274772016e-7
          -1.5461689686106466e-7 7.504248800040897e-10 -1.4612848207789595e-7 -3.060108245849003e-7 -1.8965380949114433e-7 7.512188977938585e-10
          6.301291627633622e-8 1.6522801570967339e-9 -1.7880969194731084e-7 -3.0667175881224637e-7 -2.1023267921306987e-7 -7.148699800742232e-10
          2.1065925205644807e-7 3.062722019813415e-7 1.685064948794504e-7 -6.699373300322961e-10 7.108372720860825e-10 1.0674178176934295e-10
          -1.750243007050187e-7 -3.0778780022514686e-7 -1.8128926681548358e-7 -4.8964918706343775e-11 3.1412841022507575e-8 6.494055183377068e-10
          -4.78601692103644e-9 7.158666617853365e-11 1.872292417759981e-10 1.8484285544508218e-7 7.839313502161995e-8 1.4670800339235826e-7
          2.234445864462169e-7 1.4226001007211603e-7 6.130952506032404e-8 1.3874838220110918e-7 2.2246422670587287e-7 1.6034470378601672e-7
          8.520968024672599e-8 1.298790228931859e-7 2.2253529025423947e-7 2.9136104085872983e-7 2.905597009611049e-7 1.743346968158125e-7
          3.422652338977946e-8 -3.8224324350067285e-8 -2.8433462798412898e-8 7.818349165005779e-8 1.5126199240842798e-7 6.043749288978065e-8
          -3.528503073661284e-8 2.309939769851867e-8 5.623128977810181e-8 -1.1524884291493681e-7 -2.3953580939792743e-7 -6.482441868820007e-8
          1.7400788205220412e-7 2.4208364566124426e-7 1.8014976873027675e-7 2.8953147850657903e-8 -2.998842167770827e-8 1.848428554450822e-7
          3.077693832392092e-7 3.08213995186804e-7 3.079826103992665e-7 3.076793462736518e-7 3.079083202070154e-7 3.0817641211926484e-7
          3.079905019303076e-7 3.0775292509660994e-7 3.0786601707463813e-7 3.082525557901862e-7 3.088353191690485e-7 3.0775303048104e-7
          3.0314441299597534e-7 3.0778258858616674e-7 3.344406791239257e-7 3.082231208163954e-7 1.5423434987071906e-7 1.58727757963936e-10
          -2.631938405080243e-8 -1.5232973322941498e-10 3.7075465330336325e-9 8.711769524533078e-11 3.813256700664272e-9 3.4719318518832715e-10
          -2.4849843215284627e-8 2.891395425904793e-10 1.4783113350215872e-7 3.0781154975072224e-7 3.702657993755831e-7 3.0750212758060366e-7
          9.182877956964636e-8 -2.501625724360288e-10 3.077693832392092e-7 1.847409443682715e-7 2.8717325254700904e-8 8.917098252999256e-8
          1.8385138530883956e-7 1.305080027059349e-7 6.154268191262004e-8 1.0935727012023681e-7 1.540131006680919e-7 7.55715068954923e-8
          5.74959039408729e-9 7.6264452755526e-8 1.53897896630106e-7 1.0543172466812474e-7 3.53696653762087e-8 4.821544726098402e-8
          6.906164778455475e-8 2.3000844409025164e-8 -3.8049991671653274e-8 -6.217388926352883e-8 -4.933501782786275e-8 5.024531740837204e-10
          -1.2043987095929427e-9 -1.4299849593079632e-7 -2.397772300794012e-7 -1.0643799274528225e-7 8.030575910844215e-8 1.4374056851865366e-7
          1.7791438593903262e-7 2.7687516182325917e-7 3.394979706481479e-7 2.646578868905137e-7 1.7289288623550528e-7 1.8474094436827148e-7
          1.8579176462161291e-10 -3.0673142553900923e-7 -1.795715643698427e-7 3.5125039739229117e-10 -1.482771061120333e-7 -3.061941140213219e-7
          -1.5413725345367595e-7 -2.1509263734642153e-10 -1.5253619980058432e-7 -3.0713162585032604e-7 -1.6003242169350786e-7 -2.1692596300515742e-10
          -1.1666347729169327e-7 -3.0578468780681237e-7 -3.6399316963560275e-7 -3.061804020622683e-7 -1.472378643710132e-7 -8.505131406862963e-10
          1.9296695049863436e-8 -3.947198876333961e-10 2.6476761958553834e-8 -1.8922285345365752e-10 -1.8049303776553472e-7 -3.079059794805612e-7
          -1.7589934470140533e-7 5.610911967461275e-10 6.509552838706184e-9 6.137139545420536e-12 1.3911094101433448e-7 3.067345042777951e-7
          3.857873667446492e-7 3.067707290339177e-7 1.8579176462160718e-10 -3.881594504887062e-8 -2.285663778054733e-7 -1.5380049279885477e-7
          -7.349779285350448e-8 -2.4663778079391216e-7 -3.7888505064556057e-7 -1.7590419643393234e-7 4.51850500742304e-8 -3.273704288781445e-8
          -1.447020370771658e-7 -2.5741494250922467e-8 4.5569225633577844e-8 -2.093452373810025e-7 -5.024494365816319e-7 -5.457079252552788e-7
          -3.81752630055534e-7 -5.32154776359889e-8 2.1596298996319872e-7 2.0184223070187075e-7 8.269272868641953e-8 3.678496802323756e-8
          3.966114705434492e-8 6.686346412176174e-8 5.515068021603259e-8 -5.871844367229795e-8 -1.5526182182696977e-7 -1.1499736853172295e-7
          -1.1652328020667885e-9 1.2299443634648946e-7 2.2817410017926725e-7 2.8506621996158806e-7 2.2046985258751956e-7 -3.881594504887062e-8
          -1.6091195305065574e-10 -7.51901658023909e-10 2.8585364937347082e-8 -1.21147663152317e-9 -1.7920479082922024e-7 -3.043046471001025e-7
          -1.7542111488852823e-7 2.157215761240026e-9 2.3141754804939715e-8 1.6155371584263101e-9 5.1661597737555636e-8 2.1679920173587494e-9
          -3.1797722452713304e-7 -6.074578791871967e-7 -5.649577992541095e-7 -3.0433923773407806e-7 6.053555236669031e-8 3.0549364698526127e-7
          2.0636212205870036e-7 2.150623600801129e-9 -6.81312023746427e-8 1.1860993811186172e-9 2.1577198411683483e-7 3.0545946773650543e-7
          8.15661441299859e-11 -3.0337471700684774e-7 -2.0792237806298412e-7 9.259362074860731e-10 3.7657579036327834e-8 2.747420567441223e-9
          -3.32966905527365e-9 1.632242620467579e-9 -1.6091195305065657e-10 9.718566281235964e-9 4.246280348223517e-8 1.554998824907522e-7
          1.8311550492993824e-7 -4.040462757705552e-8 -2.987853270227482e-7 -3.757514053996589e-7 -3.627322510149195e-7 -3.511572521756621e-7
          -3.3697093873178103e-7 -3.161178405331706e-7 -3.641204613486279e-7 -5.565013049469499e-7 -6.873348433380443e-7 -5.506955485318195e-7
          -2.948733268147421e-7 -6.815808447327882e-8 1.575827788989424e-8 -1.56816140327899e-7 -3.49320584483187e-7 -3.2519429993249814e-7
          -1.9080760098989858e-7 -5.2530801969454634e-8 -2.020167892658254e-8 -2.0365800791669874e-7 -3.679397513554064e-7 -2.780868716583087e-7
          -1.6779482241846963e-7 -2.707590572289531e-7 -3.9761655375541683e-7 -3.590042896635189e-7 -2.0615000347679078e-7 9.718566281235962e-9
          5.216931484720505e-11 4.457228177931925e-11 1.9148805432305478e-7 3.002878509928632e-7 5.2349197845393887e-8 -3.006338598821955e-7
          -5.069672769527476e-7 -6.013371642230264e-7 -6.18429632549796e-7 -6.016312020389178e-7 -5.943283927962525e-7 -6.013904549316213e-7
          -6.276866385548437e-7 -6.030067244289534e-7 -4.5714049331698346e-7 -3.0049954145576487e-7 -2.4349546508212836e-7 -2.989557787517511e-7
          -4.797079970203104e-7 -6.004561694987572e-7 -4.759043457980428e-7 -3.009026127723494e-7 -2.703010572758594e-7 -3.0151263563602056e-7
          -3.119503041802806e-7 -3.0181259660770074e-7 -2.712980466173424e-7 -3.003252821107727e-7 -4.6881293098955885e-7 -6.014770417713372e-7
          -5.230336629737441e-7 -3.0026364310795694e-7 5.2169314847204985e-11 -7.334483595765003e-10 1.6380055232187705e-8 1.422464121647957e-7
          2.0354496645665174e-7 2.695506212616028e-8 -2.05196129015391e-7 -3.1058143515671463e-7 -3.240199644102834e-7 -2.803308248885701e-7
          -2.4340106056048774e-7 -2.7711771539494844e-7 -3.1901938029727784e-7 -3.066446461728004e-7 -2.6934779671562e-7 -2.3648311561983947e-7
          -2.175943904609424e-7 -2.2222540881441185e-7 -2.6578635967683425e-7 -3.636874320447962e-7 -4.114375622073149e-7 -3.045456864534076e-7
          -1.417148569088251e-7 -2.164812569931824e-8 2.5784564934195644e-8 -2.9286727249200963e-8 -1.13730343168593e-7 -1.5441462374306556e-7
          -1.9191955017654922e-7 -2.668251036729743e-7 -3.264478833627874e-7 -3.1810448837643504e-7 -2.1759848721000298e-7 -7.334483595765001e-10
          6.664878754303588e-11 1.287916109116217e-9 1.8584814189598895e-9 2.6211373080215462e-9 4.4186763672487365e-9 -3.5347974164455424e-9
          -3.2025180056148367e-8 -9.772113834016693e-10 1.696843687702525e-7 2.898519065126647e-7 1.6941774795168574e-7 -7.375715962556515e-10
          -2.9733516814730712e-8 -8.51859367434475e-10 2.625629081938394e-9 -4.123921657319093e-9 -5.923381775913588e-9 -4.06895173655547e-9
          1.4316799804499268e-10 -5.2826168827338334e-9 -3.2341900689513566e-8 4.4325096982885175e-10 1.745507724874166e-7 2.968356880075419e-7
          1.7415302167449687e-7 3.80256708110937e-10 -3.06051236717867e-8 -1.8655808752354317e-9 3.5364236877252944e-9 -1.4739897206953185e-9
          -3.971700838288002e-9 -3.5827934179196396e-9 6.664878754303596e-11 -6.2310886082266104e-9 -1.3768503623004973e-7 -2.1365981586524883e-7
          -1.6448887208454524e-7 7.949435054134004e-8 2.429294341735635e-7 5.045596097328171e-8 -9.873532491741731e-8 1.94546320643555e-7
          4.601352437554985e-7 2.2786579051771312e-7 -1.1658604981679067e-7 -1.8754428799500276e-7 -7.703732135426895e-8 1.22906452768065e-7
          2.8675062052371287e-7 2.889587680643887e-7 2.5324055399911676e-7 3.0330563693692165e-7 2.944013166565437e-7 8.177489293672338e-8
          -1.3602044087908433e-7 -1.6043149144742398e-7 -1.1544922207526476e-7 -1.2506459606957548e-7 -1.1386026822883022e-7 -6.418893351502844e-9
          7.024748840424956e-8 -1.0873163119730129e-8 -5.699761348397792e-8 1.2465737175097022e-7 2.39707608178444e-7 -6.231088608226612e-9
          -3.8388240323615003e-10 -2.8648849483122886e-7 -3.934468397869351e-7 -2.8625924415521035e-7 7.007396517909041e-8 2.9095764128828187e-7
          -8.203362755321099e-9 -2.8741062317027256e-7 -6.665716175125695e-9 2.929308014312106e-7 7.027837284982742e-8 -2.884228413135319e-7
          -3.9697268045312416e-7 -2.8543155651065193e-7 1.6140118572182094e-8 2.934409944621592e-7 3.3216972082606066e-7 2.9083121201953964e-7
          3.279303823982494e-7 2.9197724606004634e-7 3.148181710278721e-8 -2.8787178678235247e-7 -5.003994479041969e-7 -5.740650473256747e-7
          -4.7683246610971423e-7 -2.861938164914941e-7 -7.964121070619273e-8 2.3255913317680613e-9 -1.8079317029203362e-7 -2.8492973086807957e-7
          3.398367431314841e-8 2.906109791639847e-7 -3.838824032361492e-10 2.4309216352737837e-8 -3.2359691703980054e-7 -4.3250941419902865e-7
          -3.5829860167375106e-7 -1.5683480601277222e-7 -6.728689454894986e-9 -8.659091423892227e-8 -1.950794999319688e-7 -1.3085246610114922e-7
          -3.3790906913118416e-8 -4.377591653453172e-8 -1.3192053606708143e-7 -2.6933780661246034e-7 -3.6176849465744387e-7 -3.149533666888081e-7
          -1.961352084394133e-7 -7.255680564212013e-8 9.452553522579768e-9 3.563580874194675e-9 -4.8202893004156735e-8 -1.0382603752935552e-7
          -1.8558130456933777e-7 -3.157441459920393e-7 -4.1648564583323687e-7 -4.099768881287064e-7 -3.2966615660385624e-7 -2.09001734984094e-7
          -1.6024878250243525e-7 -2.956724583918957e-7 -3.856814580128051e-7 -2.006844767254935e-7 1.6813932414775404e-8 2.430921635273784e-8
          1.5812960648588973e-9 -2.8140241822342066e-7 -3.269713496054342e-7 -2.841508773470047e-7 -3.0196638071395475e-7 -2.788620845148121e-7
          -1.1328221355810461e-7 -2.523313247033988e-9 -1.4388192898480232e-7 -2.782406036101224e-7 -1.464818799617074e-7 1.562271595482137e-9
          -8.394011930351453e-8 -2.831856768199552e-7 -4.7637102511509757e-7 -5.607779505751555e-7 -4.336882395863433e-7 -2.776105840498819e-7
          -2.7505367586699255e-7 -2.8099806350484503e-7 -1.5042429543060893e-7 -2.3849328120468347e-9 4.4067463183078435e-8 -6.234558539477911e-9
          -1.484584490739604e-7 -2.814908417585081e-7 -3.042183699312603e-7 -2.795527814431651e-7 -2.704058241451707e-7 -2.84549821717669e-7
          -3.2975709784105217e-7 -2.772919570639871e-7 1.581296064858899e-9 -1.1927197020495358e-7 -1.9934439449036631e-7 -1.0210441093913828e-7
          -1.1631905240660474e-8 -1.1200676308432371e-7 -1.9260462196875317e-7 -4.280111939257394e-8 8.593276171616158e-8 -5.787396157059904e-8
          -2.5196381245645764e-7 -2.7407931414501636e-7 -2.0228914835400397e-7 -1.1466199680114942e-7 -7.671133194842507e-8 -1.5395062625780355e-7
          -2.5613096583367895e-7 -2.9300343678044553e-7 -2.6244869744233745e-7 -1.6234740616358888e-7 -4.9402503013291356e-8 1.9683071939463867e-8
          8.362981267028927e-8 1.8115821315479749e-7 1.9671229894152076e-7 1.4736095578991629e-8 -1.978728360595719e-7 -2.7421693510095206e-7
          -2.301263417988434e-7 -8.143119640694052e-8 -4.992610040712889e-9 -1.7767169381563024e-7 -3.1169072233570587e-7 -1.1927197020495358e-7
          -2.690170271277402e-7 -4.517371150863539e-9 1.996275507218232e-7 2.672890559809252e-7 1.2233846211704783e-7 -2.845451970697566e-9
          1.241160926168004e-7 2.6686335754268633e-7 1.8903660447010487e-7 -5.470377295107147e-9 -2.1276379844711298e-7 -2.7315551295876106e-7
          -2.6957374802899455e-8 2.645605297336061e-7 3.401281143638903e-7 2.6303895861641577e-7 9.658664201964545e-8 -5.6602722084196215e-9
          1.0986677915022155e-7 2.6706975086534296e-7 2.8985059770671856e-7 2.6682164813814636e-7 2.8659523062342455e-7 2.704195722707852e-7
          1.395429001884606e-7 -4.490719312428755e-9 -6.013721992076222e-8 -5.074872279736985e-9 1.830180529674498e-7 2.6740930225812804e-7
          1.1366622029627385e-8 -2.718591127537595e-7 -2.690170271277402e-7 -3.1738270213918256e-7 2.585300257802521e-7 4.243644528615509e-7
          3.2551088407400303e-7 1.0735962438689768e-7 1.3384686050605157e-8 2.8706008131549575e-7 5.647941415923813e-7 4.829951982920738e-7
          2.6301285950099523e-7 1.2619673330556752e-7 1.3887654247254103e-7 3.6738200976866597e-7 5.756263846140696e-7 5.27522916428879e-7
          3.832722312588343e-7 3.0307495514967596e-7 2.639061038162993e-7 2.4274069297359977e-7 2.8877310349506327e-7 4.511977162541754e-7
          5.649903379404031e-7 4.65126775243213e-7 3.107852875263978e-7 2.6114413415375044e-7 2.584046585297087e-7 2.4476820405871e-7
          2.61152448389972e-7 3.4847506917271236e-7 3.2494525910978417e-7 8.772210904040288e-9 -3.040138509953412e-7 -3.1738270213918256e-7
          0 0 1.2556156949666403e-10 2.5849394142282115e-26 -7.53369416979984e-10 2.0679515313825692e-25
          4.394654932383241e-9 1.6543612251060553e-24 -2.5614560177319452e-8 1.3234889800848443e-23 1.4929270613153353e-7 2.6235424089603697e-7
          1.792752869722661e-7 -6.617444900424222e-24 -1.755274643809824e-7 -2.6235424089603697e-7 -1.7552746427051985e-7 -6.617444900424222e-24
          1.7927528641995332e-7 2.623542408960369e-7 1.4929270933494755e-7 -1.613002194478404e-23 -2.5614578845491016e-8 -2.5849394142282115e-26
          4.394763737998459e-9 4.8467614016778965e-25 -7.540035824997352e-10 8.885729236409477e-27 1.292577569999546e-10 1.0097419586828951e-27
          -2.1542959499992436e-11 -8.077935669463161e-28 0
        </DataArray>
        <DataArray type="Float64" Name="s_xy" format="ascii" RangeMin="0" RangeMax="0">
          0 0 0 0 0 0
          0 0 0 0 0 0
          0 0 0 0 0 0
          0 0 0 0 0 0
          0 0 0 0 0 0
          0 0 0 0 0 0
          0 0 0 0 0 0
          0 0 0 0 0 0
          0 0 0 0 0 0
          0 0 0 0 0 0
          0 0 0 0 0 0
          0 0 0 0 0 0
          0 0 0 0 0 0
          0 0 0 0 0 0
          0 0 0 0 0 0
          0 0 0 0 0 0
          0 0 0 0 0 0
          0 0 0 0 0 0
          0 0 0 0 0 0
          0 0 0 0 0 0
          0 0 0 0 0 0
          0 0 0 0 0 0
          0 0 0 0 0 0
          0 0 0 0 0 0
          0 0 0 0 0 0
          0 0 0 0 0 0
          0 0 0 0 0 0
          0 0 0 0 0 0
          0 0 0 0 0 0
          0 0 0 0 0 0
          0 0 0 0 0 0
          0 0 0 0 0 0
          0 0 0 0 0 0
          0 0 0 0 0 0
          0 0 0 0 0 0
          0 0 0 0 0 0
          0 0 0 0 0 0
          0 0 0 0 0 0
          0 0 0 0 0 0
          0 0 0 0 0 0
          0 0 0 0 0 0
          0 0 0 0 0 0
          0 0 0 0 0 0
          0 0 0 0 0 0
          0 0 0 0 0 0
          0 0 0 0 0 0
          0 0 0 0 0 0
          0 0 0 0 0 0
          0 0 0 0 0 0
          0 0 0 0 0 0
          0 0 0 0 0 0
          0 0 0 0 0 0
          0 0 0 0 0 0
          0 0 0 0 0 0
          0 0 0 0 0 0
          0 0 0 0 0 0
          0 0 0 0 0 0
          0 0 0 0 0 0
          0 0 0 0 0 0
          0 0 0 0 0 0
          0 0 0 0 0 0
          0 0 0 0 0 0
          0 0 0 0 0 0
          0 0 0 0 0 0
          0 0 0 0 0 0
          0 0 0 0 0 0
          0 0 0 0 0 0
          0 0 0 0 0 0
          0 0 0 0 0 0
          0 0 0 0 0 0
          0 0 0 0 0 0
          0 0 0 0 0 0
          0 0 0 0 0 0
          0 0 0 0 0 0
          0 0 0 0 0 0
          0 0 0 0 0 0
          0 0 0 0 0 0
          0 0 0 0 0 0
          0 0 0 0 0 0
          0 0 0 0 0 0
          0 0 0 0 0 0
          0 0 0 0 0 0
          0 0 0 0 0 0
          0 0 0 0 0 0
          0 0 0 0 0 0
          0 0 0 0 0 0
          0 0 0 0 0 0
          0 0 0 0 0 0
          0 0 0 0 0 0
          0 0 0 0 0 0
          0 0 0 0 0 0
          0 0 0 0 0 0
          0 0 0 0 0 0
          0 0 0 0 0 0
          0 0 0 0 0 0
          0 0 0 0 0 0
          0 0 0 0 0 0
          0 0 0 0 0 0
          0 0 0 0 0 0
          0 0 0 0 0 0
          0 0 0 0 0 0
          0 0 0 0 0 0
          0 0 0 0 0 0
          0 0 0 0 0 0
          0 0 0 0 0 0
          0 0 0 0 0 0
          0 0 0 0 0 0
          0 0 0 0 0 0
          0 0 0 0 0 0
          0 0 0 0 0 0
          0 0 0 0 0 0
          0 0 0 0 0 0
          0 0 0 0 0 0
          0 0 0 0 0 0
          0 0 0 0 0 0
          0 0 0 0 0 0
          0 0 0 0 0 0
          0 0 0 0 0 0
          0 0 0 0 0 0
          0 0 0 0 0 0
          0 0 0 0 0 0
          0 0 0 0 0 0
          0 0 0 0 0 0
          0 0 0 0 0 0
          0 0 0 0 0 0
          0 0 0 0 0 0
          0 0 0 0 0 0
          0 0 0 0 0 0
          0 0 0 0 0 0
          0 0 0 0 0 0
          0 0 0 0 0 0
          0 0 0 0 0 0
          0 0 0 0 0 0
          0 0 0 0 0 0
          0 0 0 0 0 0
          0 0 0 0 0 0
          0 0 0 0 0 0
          0 0 0 0 0 0
          0 0 0 0 0 0
          0 0 0 0 0 0
          0 0 0 0 0 0
          0 0 0 0 0 0
          0 0 0 0 0 0
          0 0 0 0 0 0
          0 0 0 0 0 0
          0 0 0 0 0 0
          0 0 0 0 0 0
          0 0 0 0 0 0
          0 0 0 0 0 0
          0 0 0 0 0 0
          0 0 0 0 0 0
          0 0 0 0 0 0
          0 0 0 0 0 0
          0 0 0 0 0 0
          0 0 0 0 0 0
          0 0 0 0 0 0
          0 0 0 0 0 0
          0 0 0 0 0 0
          0 0 0 0 0 0
          0 0 0 0 0 0
          0 0 0 0 0 0
          0 0 0 0 0 0
          0 0 0 0 0 0
          0 0 0 0 0 0
          0 0 0 0 0 0
          0 0 0 0 0 0
          0 0 0 0 0 0
          0 0 0 0 0 0
          0 0 0 0 0 0
          0 0 0 0 0 0
          0 0 0 0 0 0
          0 0 0 0 0 0
          0 0 0 0 0 0
          0 0 0 0 0 0
          0 0 0 0 0 0
          0 0 0 0 0 0
          0 0 0 0 0 0
          0 0 0 0 0 0
          0 0 0 0 0 0
          0 0 0 0 0 0
          0 0 0 0 0 0
          0 0 0
        </DataArray>
        <DataArray type="Float64" Name="s_yy" format="ascii" RangeMin="-6.873348433380443e-7" RangeMax="5.792561468202398e-7">
          0 0 1.2556156949666403e-10 2.5849394142282115e-26 -7.53369416979984e-10 2.0679515313825692e-25
          4.394654932383241e-9 1.6543612251060553e-24 -2.5614560177319452e-8 1.3234889800848443e-23 1.4929270613153353e-7 2.6235424089603697e-7
          1.792752869722661e-7 -6.617444900424222e-24 -1.755274643809824e-7 -2.6235424089603697e-7 -1.7552746427051985e-7 -6.617444900424222e-24
          1.7927528641995332e-7 2.623542408960369e-7 1.4929270933494755e-7 -1.613002194478404e-23 -2.5614578845491016e-8 -2.5849394142282115e-26
          4.394763737998459e-9 4.8467614016778965e-25 -7.540035824997352e-10 8.885729236409477e-27 1.292577569999546e-10 1.0097419586828951e-27
          -2.1542959499992436e-11 -8.077935669463161e-28 0 3.1737544987949507e-7 3.038673017592444e-7 3.170415682400152e-7
          3.337724762091e-7 3.3093425255379123e-7 3.2002037877598305e-7 3.125243363775697e-7 2.5119367690881e-7 7.877595191996308e-8
          -7.748392212347908e-8 -9.034102875602434e-8 -4.117740496248561e-8 -1.137508772767573e-8 -9.911887682346361e-9 -4.5765615457249145e-8
          -3.5035725425123816e-8 1.0617832804128994e-7 2.5262208158062084e-7 2.790410718314973e-7 2.7837746185721284e-7 3.435734147210603e-7
          3.01715665072912e-7 -2.0109052437360014e-8 -2.5267479532773725e-7 -2.6755621116201393e-8 3.0711184988111563e-7 3.98390997348082e-7
          3.1644871947259887e-7 1.3065191444256739e-7 -1.447880722508278e-10 8.291324159790588e-8 2.365214915496252e-7 3.1737544987949507e-7
          2.690185688864742e-7 2.718902676729768e-7 2.6594030091580015e-7 2.655327231440525e-7 2.850315888868418e-7 2.6845628314346814e-7
          1.598261909132317e-7 -2.957735887470658e-9 -1.819945453422418e-7 -2.695735795655728e-7 -1.5798418067195466e-7 7.245151506201176e-10
          5.450337171415896e-8 2.1071693600007378e-9 -1.577093115705157e-7 -2.705682524797372e-7 -1.8209183477001083e-7 -3.2614006034743465e-9
          1.549417078577342e-7 2.6927976153524215e-7 3.165150313506768e-7 2.723476843674142e-7 1.1247788764883078e-7 3.272607025130057e-9
          1.1109880832651576e-7 2.7120050880881676e-7 3.188217257278624e-7 2.6921558261190913e-7 1.3763520298921404e-7 3.0780513189541123e-11
          -6.764749116275173e-8 1.614257116049328e-10 2.6901856888647414e-7 1.193570970928725e-7 3.134109145148433e-7 1.2302679966306564e-7
          -1.086063184584589e-7 -3.8299510845728935e-8 8.831097141328292e-8 2.558887723060402e-8 -7.773504066140063e-8 -7.293002953036616e-8
          -2.8932294753936028e-8 -1.4678041709753612e-8 1.4341629805490112e-8 1.0263561999510439e-7 1.518409799880557e-7 6.359476091331047e-8
          -5.819045407247933e-8 -1.0960208181266164e-7 -9.450162785443576e-8 -1.6750597745000857e-8 1.0811677181305904e-7 2.6456624411716e-7
          3.3866678550229936e-7 2.1648736230347437e-7 9.512038082741231e-8 1.7165824738084024e-7 2.7532646963662813e-7 2.3535055526764592e-7
          1.3023504119254104e-7 3.848446432996104e-8 1.699519671009126e-9 6.148090220678864e-8 1.2998222399488225e-7 1.193570970928725e-7
          -1.5864112000810168e-9 2.771885935343264e-7 3.1432933898436594e-8 -2.7832384374078647e-7 -1.9155219301637853e-7 2.7909962566160204e-10
          5.701247739335279e-9 1.7256556344141548e-9 1.6536372762066994e-7 2.836429980669009e-7 1.4359100134190544e-7 2.1475468287930744e-11
          1.0774815846865284e-7 2.8131150497379325e-7 3.3525196961450206e-7 2.8451783241763175e-7 1.4405737341003505e-7 2.7331323882665013e-9
          -5.0592350851119034e-8 -2.7757964498622813e-11 1.703182293917507e-7 2.7567100962621144e-7 1.3125598114746622e-7 -2.770312240640438e-9
          1.3374867326573596e-7 2.79477025429048e-7 1.730788320117481e-7 -2.2400490384763037e-9 -6.327375977393776e-8 -1.021213525176541e-10
          1.9719504506790268e-7 2.7967964621086696e-7 -1.5864112000810125e-9 -2.4660310448161513e-8 -2.3908627544049434e-8 6.013249255619722e-8
          1.508357051489982e-7 1.715736655307736e-7 1.397773913047291e-7 7.287790007407072e-8 4.872643935858272e-8 1.4517425667804966e-7
          2.1732679797772926e-7 1.2028950920287929e-7 2.238153526836075e-8 9.192202108903459e-8 2.11244945456699e-7 2.626842871631521e-7
          2.564664291031176e-7 2.0281775417131918e-7 1.5427015625470741e-7 1.633555292402332e-7 1.396227094160945e-7 -7.3794669295106885e-9
          -1.6446522330206322e-7 -2.1844878320704384e-7 -1.56822117458137e-7 3.292280313097306e-8 1.695576499356575e-7 7.185409433128752e-8
          -6.952488892749106e-8 -6.391632508603249e-8 -7.009434223832791e-9 5.506563579612055e-9 -6.87487929029762e-9 -2.466031044816151e-8
          4.009289910398233e-10 -2.9026651212498306e-7 1.0182785369886067e-7 5.792561468202398e-7 5.44590487596823e-7 2.8916211365711717e-7
          1.0430226262962978e-7 -1.7065884196071802e-9 -2.058196242456125e-8 -2.982059898722773e-9 4.349186444178745e-10 -1.284370496360532e-9
          9.06728977720759e-10 -4.1423810992991305e-9 -2.7582298893381125e-8 -4.684711908251442e-9 1.292786923523638e-7 2.8991406183434216e-7
          3.928275444835613e-7 2.889719387326469e-7 -1.7069995698577584e-7 -5.801871904296516e-7 -5.334888093569253e-7 -2.8979015707122366e-7
          -1.0827657687617322e-7 -2.9147449666128577e-9 1.2328662462618567e-8 2.579228160097902e-9 3.296253487440205e-8 3.403273866124878e-10
          -1.9842564952218928e-7 -2.8963793570353595e-7 4.009289910398224e-10 7.609306634024631e-9 -2.118574197470289e-7 4.8742804769858424e-8
          3.843713871252325e-7 3.899897342596394e-7 2.1126474089190056e-7 -6.136698259162129e-9 -1.5458759062793126e-7 -1.2646094364878916e-7
          -5.745131756472163e-8 -8.32532726187144e-8 -1.4714158531290873e-7 -1.9239103214944594e-7 -2.3374486707453286e-7 -2.859463440343763e-7
          -2.260961738136629e-7 6.870493280292084e-8 3.545412978801048e-7 3.874972434826187e-7 1.8973167070787945e-7 -2.165965193466962e-7
          -5.464007231964871e-7 -5.145943373568726e-7 -3.445235875923281e-7 -2.595346996673299e-7 -1.5929622005195208e-7 5.652330478373124e-8
          2.2086768674806587e-7 1.6668073774939758e-7 2.75154971953414e-8 -6.307499550648767e-8 -7.855547935921739e-8 7.609306634024631e-9
          -1.1915517701497241e-10 2.5217763558332045e-9 -5.2944461473803e-9 -3.9844440751344714e-9 2.6035161184091755e-8 -3.1097065541351174e-9
          -1.7929312347424839e-7 -2.9605494610978463e-7 -1.4693503099428032e-7 9.246854663474146e-10 -1.1961773313381873e-7 -2.961549088182263e-7
          -3.162794636103229e-7 -2.938499263414952e-7 -3.427248258431299e-7 -2.9449576981760136e-7 1.9245634032716232e-8 2.929227636157961e-7
          2.209589968396117e-7 -2.2469731138014687e-9 -1.8229645306240786e-7 -2.9130418537522015e-7 -3.013849124212512e-7 -2.933044113581282e-7
          -3.4782845934347904e-7 -2.9651548010915155e-7 2.9076102613005974e-8 2.935592636336377e-7 1.6154697776338755e-7 -1.0482662287166838e-9
          1.716860204263526e-7 2.989342525148387e-7 -1.1915517701497223e-10 -4.6108183076164755e-9 7.187886020834557e-8 3.2178370822638475e-8
          -5.532021106012819e-8 -1.2222481003534486e-7 -1.9632530358047718e-7 -3.0541156917299055e-7 -3.212737322910105e-7 -1.1570191841266232e-7
          3.8464489103022255e-8 -1.316138931029884e-7 -3.233599964796739e-7 -2.3419675247601406e-7 -9.480501619499451e-8 -1.3586564273960096e-7
          -1.7614644138321351e-7 -3.4415221399212116e-8 1.026989598510371e-7 4.856704500616808e-8 -6.89216665107811e-8 -1.2187787527677233e-7
          -1.2897277695063258e-7 -1.0887756719118898e-7 -1.415442761728595e-7 -3.069249340700621e-7 -3.96322299353105e-7 -2.0103913049229618e-7
          -6.901773326812307e-9 -9.97365736958301e-8 -1.4442180678506752e-7 1.941642522197576e-7 4.0958133711384226e-7 -4.6108183076164755e-9
          9.349385847748799e-11 -1.1680811110482067e-9 2.335662464020933e-8 8.593922353416516e-12 -1.4487119045451264e-7 -3.0072840407520107e-7
          -3.570087225245242e-7 -2.9995835493922095e-7 -1.1582351045603026e-7 -8.101556676900297e-10 -1.5112425716693813e-7 -2.999361148690232e-7
          -1.8041602868919385e-7 -5.747438671421e-10 3.157699435743986e-8 1.7090971510725937e-9 -4.508524319723254e-9 -7.81685949621108e-11
          1.9978657853417443e-9 1.1945527418265264e-9 -3.0131338048694537e-9 1.611969542922559e-9 2.7307026182871226e-8 1.1369353812402154e-9
          -1.4983340359570686e-7 -2.9779223027206255e-7 -3.149277841719196e-7 -3.0190935417992507e-7 -3.594062291807256e-7 -3.01467097568227e-7
          5.785935226366535e-8 2.98427942133163e-7 9.349385847748769e-11 1.0795779410037255e-8 -1.4433542307490773e-7 -1.6031800587459877e-7
          -1.473968066481524e-7 -2.1581666305468524e-7 -3.0124982480084225e-7 -3.393685415932687e-7 -3.139333599201063e-7 -2.087048262694969e-7
          -1.3466626971291348e-7 -2.0280101932182917e-7 -3.133526980196245e-7 -3.6656492872968003e-7 -3.1688277644915905e-7 -1.1875130617522471e-7
          8.593246507358415e-8 1.552715202787289e-7 1.545458402180359e-7 1.490354056693315e-7 1.5595411075013415e-7 1.925158495779622e-7
          1.9797327181760774e-7 1.1157902713386276e-7 3.26894759874076e-8 6.066097883892254e-8 7.626823476653941e-8 -3.971405715160998e-8
          -2.09087068622681e-7 -3.536519713538289e-7 -3.554672012695813e-7 -9.659119429446527e-8 1.2486636184193544e-7 1.0795779410037255e-8
          -1.6928137877241951e-10 -3.052194677788823e-7 -3.573868193047164e-7 -3.0485101064196256e-7 -2.957917164763087e-7 -3.0428549914270786e-7
          -3.0440892097611316e-7 -3.0385226925449585e-7 -3.103058312558274e-7 -3.0529805669224287e-7 -2.7035739527587754e-7 -3.038567901846807e-7
          -5.041691845966018e-7 -6.094623598646197e-7 -3.579040973417133e-7 -1.0904597741283743e-9 2.0938249009188917e-7 3.0470389157667745e-7
          3.160628840005746e-7 3.050175343383734e-7 3.331259095648662e-7 3.043729148142539e-7 1.2274345522073704e-7 -2.851730708067033e-10
          1.4676432608450035e-7 3.0471515860669286e-7 2.1439053041580558e-7 1.2467570165267483e-9 -2.0925984608645523e-7 -3.0350703986675383e-7
          -1.6787258529798231e-7 -6.591199465265807e-10 -1.6928137877241954e-10 -3.911716003447993e-8 -4.1311501606072147e-7 -3.7180877277450473e-7
          -2.2824561937861937e-7 -2.9547274507585523e-7 -3.781959171371445e-7 -2.811209028334196e-7 -1.9485713017195436e-7 -3.1001402716002253e-7
          -4.172830244956503e-7 -3.0735555287686347e-7 -1.9502349916672716e-7 -2.9507875022830623e-7 -4.215556494119005e-7 -3.884885400678095e-7
          -2.410680836212839e-7 -2.4484941497574372e-8 1.875397537771632e-7 3.2128486967677314e-7 3.6266879527217564e-7 2.97609919634291e-7
          1.7811566693203338e-7 5.619346133431704e-8 -2.2324885410050565e-8 -1.160756155226186e-8 3.037984188421053e-8 4.567173387589423e-8
          1.0381083348032336e-8 -9.937914077413185e-8 -1.7371961847005348e-7 -1.0275102971918761e-7 -1.5031001310880895e-8 -3.911716003447993e-8
          1.872292417760035e-10 -3.060307378031779e-7 -1.7878554149151432e-7 9.097208197053229e-10 -1.4795804822658007e-7 -3.0619740274772016e-7
          -1.5461689686106466e-7 7.504248800040897e-10 -1.4612848207789595e-7 -3.060108245849003e-7 -1.8965380949114433e-7 7.512188977938585e-10
          6.301291627633622e-8 1.6522801570967339e-9 -1.7880969194731084e-7 -3.0667175881224637e-7 -2.1023267921306987e-7 -7.148699800742232e-10
          2.1065925205644807e-7 3.062722019813415e-7 1.685064948794504e-7 -6.699373300322961e-10 7.108372720860825e-10 1.0674178176934295e-10
          -1.750243007050187e-7 -3.0778780022514686e-7 -1.8128926681548358e-7 -4.8964918706343775e-11 3.1412841022507575e-8 6.494055183377068e-10
          -4.78601692103644e-9 7.158666617853365e-11 1.872292417759981e-10 1.8484285544508218e-7 7.839313502161995e-8 1.4670800339235826e-7
          2.234445864462169e-7 1.4226001007211603e-7 6.130952506032404e-8 1.3874838220110918e-7 2.2246422670587287e-7 1.6034470378601672e-7
          8.520968024672599e-8 1.298790228931859e-7 2.2253529025423947e-7 2.9136104085872983e-7 2.905597009611049e-7 1.743346968158125e-7
          3.422652338977946e-8 -3.8224324350067285e-8 -2.8433462798412898e-8 7.818349165005779e-8 1.5126199240842798e-7 6.043749288978065e-8
          -3.528503073661284e-8 2.309939769851867e-8 5.623128977810181e-8 -1.1524884291493681e-7 -2.3953580939792743e-7 -6.482441868820007e-8
          1.7400788205220412e-7 2.4208364566124426e-7 1.8014976873027675e-7 2.8953147850657903e-8 -2.998842167770827e-8 1.848428554450822e-7
          3.077693832392092e-7 3.08213995186804e-7 3.079826103992665e-7 3.076793462736518e-7 3.079083202070154e-7 3.0817641211926484e-7
          3.079905019303076e-7 3.0775292509660994e-7 3.0786601707463813e-7 3.082525557901862e-7 3.088353191690485e-7 3.0775303048104e-7
          3.0314441299597534e-7 3.0778258858616674e-7 3.344406791239257e-7 3.082231208163954e-7 1.5423434987071906e-7 1.58727757963936e-10
          -2.631938405080243e-8 -1.5232973322941498e-10 3.7075465330336325e-9 8.711769524533078e-11 3.813256700664272e-9 3.4719318518832715e-10
          -2.4849843215284627e-8 2.891395425904793e-10 1.4783113350215872e-7 3.0781154975072224e-7 3.702657993755831e-7 3.0750212758060366e-7
          9.182877956964636e-8 -2.501625724360288e-10 3.077693832392092e-7 1.847409443682715e-7 2.8717325254700904e-8 8.917098252999256e-8
          1.8385138530883956e-7 1.305080027059349e-7 6.154268191262004e-8 1.0935727012023681e-7 1.540131006680919e-7 7.55715068954923e-8
          5.74959039408729e-9 7.6264452755526e-8 1.53897896630106e-7 1.0543172466812474e-7 3.53696653762087e-8 4.821544726098402e-8
          6.906164778455475e-8 2.3000844409025164e-8 -3.8049991671653274e-8 -6.217388926352883e-8 -4.933501782786275e-8 5.024531740837204e-10
          -1.2043987095929427e-9 -1.4299849593079632e-7 -2.397772300794012e-7 -1.0643799274528225e-7 8.030575910844215e-8 1.4374056851865366e-7
          1.7791438593903262e-7 2.7687516182325917e-7 3.394979706481479e-7 2.646578868905137e-7 1.7289288623550528e-7 1.8474094436827148e-7
          1.8579176462161291e-10 -3.0673142553900923e-7 -1.795715643698427e-7 3.5125039739229117e-10 -1.482771061120333e-7 -3.061941140213219e-7
          -1.5413725345367595e-7 -2.1509263734642153e-10 -1.5253619980058432e-7 -3.0713162585032604e-7 -1.6003242169350786e-7 -2.1692596300515742e-10
          -1.1666347729169327e-7 -3.0578468780681237e-7 -3.6399316963560275e-7 -3.061804020622683e-7 -1.472378643710132e-7 -8.505131406862963e-10
          1.9296695049863436e-8 -3.947198876333961e-10 2.6476761958553834e-8 -1.8922285345365752e-10 -1.8049303776553472e-7 -3.079059794805612e-7
          -1.7589934470140533e-7 5.610911967461275e-10 6.509552838706184e-9 6.137139545420536e-12 1.3911094101433448e-7 3.067345042777951e-7
          3.857873667446492e-7 3.067707290339177e-7 1.8579176462160718e-10 -3.881594504887062e-8 -2.285663778054733e-7 -1.5380049279885477e-7
          -7.349779285350448e-8 -2.4663778079391216e-7 -3.7888505064556057e-7 -1.7590419643393234e-7 4.51850500742304e-8 -3.273704288781445e-8
          -1.447020370771658e-7 -2.5741494250922467e-8 4.5569225633577844e-8 -2.093452373810025e-7 -5.024494365816319e-7 -5.457079252552788e-7
          -3.81752630055534e-7 -5.32154776359889e-8 2.1596298996319872e-7 2.0184223070187075e-7 8.269272868641953e-8 3.678496802323756e-8
          3.966114705434492e-8 6.686346412176174e-8 5.515068021603259e-8 -5.871844367229795e-8 -1.5526182182696977e-7 -1.1499736853172295e-7
          -1.1652328020667885e-9 1.2299443634648946e-7 2.2817410017926725e-7 2.8506621996158806e-7 2.2046985258751956e-7 -3.881594504887062e-8
          -1.6091195305065574e-10 -7.51901658023909e-10 2.8585364937347082e-8 -1.21147663152317e-9 -1.7920479082922024e-7 -3.043046471001025e-7
          -1.7542111488852823e-7 2.157215761240026e-9 2.3141754804939715e-8 1.6155371584263101e-9 5.1661597737555636e-8 2.1679920173587494e-9
          -3.1797722452713304e-7 -6.074578791871967e-7 -5.649577992541095e-7 -3.0433923773407806e-7 6.053555236669031e-8 3.0549364698526127e-7
          2.0636212205870036e-7 2.150623600801129e-9 -6.81312023746427e-8 1.1860993811186172e-9 2.1577198411683483e-7 3.0545946773650543e-7
          8.15661441299859e-11 -3.0337471700684774e-7 -2.0792237806298412e-7 9.259362074860731e-10 3.7657579036327834e-8 2.747420567441223e-9
          -3.32966905527365e-9 1.632242620467579e-9 -1.6091195305065657e-10 9.718566281235964e-9 4.246280348223517e-8 1.554998824907522e-7
          1.8311550492993824e-7 -4.040462757705552e-8 -2.987853270227482e-7 -3.757514053996589e-7 -3.627322510149195e-7 -3.511572521756621e-7
          -3.3697093873178103e-7 -3.161178405331706e-7 -3.641204613486279e-7 -5.565013049469499e-7 -6.873348433380443e-7 -5.506955485318195e-7
          -2.948733268147421e-7 -6.815808447327882e-8 1.575827788989424e-8 -1.56816140327899e-7 -3.49320584483187e-7 -3.2519429993249814e-7
          -1.9080760098989858e-7 -5.2530801969454634e-8 -2.020167892658254e-8 -2.0365800791669874e-7 -3.679397513554064e-7 -2.780868716583087e-7
          -1.6779482241846963e-7 -2.707590572289531e-7 -3.9761655375541683e-7 -3.590042896635189e-7 -2.0615000347679078e-7 9.718566281235962e-9
          5.216931484720505e-11 4.457228177931925e-11 1.9148805432305478e-7 3.002878509928632e-7 5.2349197845393887e-8 -3.006338598821955e-7
          -5.069672769527476e-7 -6.013371642230264e-7 -6.18429632549796e-7 -6.016312020389178e-7 -5.943283927962525e-7 -6.013904549316213e-7
          -6.276866385548437e-7 -6.030067244289534e-7 -4.5714049331698346e-7 -3.0049954145576487e-7 -2.4349546508212836e-7 -2.989557787517511e-7
          -4.797079970203104e-7 -6.004561694987572e-7 -4.759043457980428e-7 -3.009026127723494e-7 -2.703010572758594e-7 -3.0151263563602056e-7
          -3.119503041802806e-7 -3.0181259660770074e-7 -2.712980466173424e-7 -3.003252821107727e-7 -4.6881293098955885e-7 -6.014770417713372e-7
          -5.230336629737441e-7 -3.0026364310795694e-7 5.2169314847204985e-11 -7.334483595765003e-10 1.6380055232187705e-8 1.422464121647957e-7
          2.0354496645665174e-7 2.695506212616028e-8 -2.05196129015391e-7 -3.1058143515671463e-7 -3.240199644102834e-7 -2.803308248885701e-7
          -2.4340106056048774e-7 -2.7711771539494844e-7 -3.1901938029727784e-7 -3.066446461728004e-7 -2.6934779671562e-7 -2.3648311561983947e-7
          -2.175943904609424e-7 -2.2222540881441185e-7 -2.6578635967683425e-7 -3.636874320447962e-7 -4.114375622073149e-7 -3.045456864534076e-7
          -1.417148569088251e-7 -2.164812569931824e-8 2.5784564934195644e-8 -2.9286727249200963e-8 -1.13730343168593e-7 -1.5441462374306556e-7
          -1.9191955017654922e-7 -2.668251036729743e-7 -3.264478833627874e-7 -3.1810448837643504e-7 -2.1759848721000298e-7 -7.334483595765001e-10
          6.664878754303588e-11 1.287916109116217e-9 1.8584814189598895e-9 2.6211373080215462e-9 4.4186763672487365e-9 -3.5347974164455424e-9
          -3.2025180056148367e-8 -9.772113834016693e-10 1.696843687702525e-7 2.898519065126647e-7 1.6941774795168574e-7 -7.375715962556515e-10
          -2.9733516814730712e-8 -8.51859367434475e-10 2.625629081938394e-9 -4.123921657319093e-9 -5.923381775913588e-9 -4.06895173655547e-9
          1.4316799804499268e-10 -5.2826168827338334e-9 -3.2341900689513566e-8 4.4325096982885175e-10 1.745507724874166e-7 2.968356880075419e-7
          1.7415302167449687e-7 3.80256708110937e-10 -3.06051236717867e-8 -1.8655808752354317e-9 3.5364236877252944e-9 -1.4739897206953185e-9
          -3.971700838288002e-9 -3.5827934179196396e-9 6.664878754303596e-11 -6.2310886082266104e-9 -1.3768503623004973e-7 -2.1365981586524883e-7
          -1.6448887208454524e-7 7.949435054134004e-8 2.429294341735635e-7 5.045596097328171e-8 -9.873532491741731e-8 1.94546320643555e-7
          4.601352437554985e-7 2.2786579051771312e-7 -1.1658604981679067e-7 -1.8754428799500276e-7 -7.703732135426895e-8 1.22906452768065e-7
          2.8675062052371287e-7 2.889587680643887e-7 2.5324055399911676e-7 3.0330563693692165e-7 2.944013166565437e-7 8.177489293672338e-8
          -1.3602044087908433e-7 -1.6043149144742398e-7 -1.1544922207526476e-7 -1.2506459606957548e-7 -1.1386026822883022e-7 -6.418893351502844e-9
          7.024748840424956e-8 -1.0873163119730129e-8 -5.699761348397792e-8 1.2465737175097022e-7 2.39707608178444e-7 -6.231088608226612e-9
          -3.8388240323615003e-10 -2.8648849483122886e-7 -3.934468397869351e-7 -2.8625924415521035e-7 7.007396517909041e-8 2.9095764128828187e-7
          -8.203362755321099e-9 -2.8741062317027256e-7 -6.665716175125695e-9 2.929308014312106e-7 7.027837284982742e-8 -2.884228413135319e-7
          -3.9697268045312416e-7 -2.8543155651065193e-7 1.6140118572182094e-8 2.934409944621592e-7 3.3216972082606066e-7 2.9083121201953964e-7
          3.279303823982494e-7 2.9197724606004634e-7 3.148181710278721e-8 -2.8787178678235247e-7 -5.003994479041969e-7 -5.740650473256747e-7
          -4.7683246610971423e-7 -2.861938164914941e-7 -7.964121070619273e-8 2.3255913317680613e-9 -1.8079317029203362e-7 -2.8492973086807957e-7
          3.398367431314841e-8 2.906109791639847e-7 -3.838824032361492e-10 2.4309216352737837e-8 -3.2359691703980054e-7 -4.3250941419902865e-7
          -3.5829860167375106e-7 -1.5683480601277222e-7 -6.728689454894986e-9 -8.659091423892227e-8 -1.950794999319688e-7 -1.3085246610114922e-7
          -3.3790906913118416e-8 -4.377591653453172e-8 -1.3192053606708143e-7 -2.6933780661246034e-7 -3.6176849465744387e-7 -3.149533666888081e-7
          -1.961352084394133e-7 -7.255680564212013e-8 9.452553522579768e-9 3.563580874194675e-9 -4.8202893004156735e-8 -1.0382603752935552e-7
          -1.8558130456933777e-7 -3.157441459920393e-7 -4.1648564583323687e-7 -4.099768881287064e-7 -3.2966615660385624e-7 -2.09001734984094e-7
          -1.6024878250243525e-7 -2.956724583918957e-7 -3.856814580128051e-7 -2.006844767254935e-7 1.6813932414775404e-8 2.430921635273784e-8
          1.5812960648588973e-9 -2.8140241822342066e-7 -3.269713496054342e-7 -2.841508773470047e-7 -3.0196638071395475e-7 -2.788620845148121e-7
          -1.1328221355810461e-7 -2.523313247033988e-9 -1.4388192898480232e-7 -2.782406036101224e-7 -1.464818799617074e-7 1.562271595482137e-9
          -8.394011930351453e-8 -2.831856768199552e-7 -4.7637102511509757e-7 -5.607779505751555e-7 -4.336882395863433e-7 -2.776105840498819e-7
          -2.7505367586699255e-7 -2.8099806350484503e-7 -1.5042429543060893e-7 -2.3849328120468347e-9 4.4067463183078435e-8 -6.234558539477911e-9
          -1.484584490739604e-7 -2.814908417585081e-7 -3.042183699312603e-7 -2.795527814431651e-7 -2.704058241451707e-7 -2.84549821717669e-7
          -3.2975709784105217e-7 -2.772919570639871e-7 1.581296064858899e-9 -1.1927197020495358e-7 -1.9934439449036631e-7 -1.0210441093913828e-7
          -1.1631905240660474e-8 -1.1200676308432371e-7 -1.9260462196875317e-7 -4.280111939257394e-8 8.593276171616158e-8 -5.787396157059904e-8
          -2.5196381245645764e-7 -2.7407931414501636e-7 -2.0228914835400397e-7 -1.1466199680114942e-7 -7.671133194842507e-8 -1.5395062625780355e-7
          -2.5613096583367895e-7 -2.9300343678044553e-7 -2.6244869744233745e-7 -1.6234740616358888e-7 -4.9402503013291356e-8 1.9683071939463867e-8
          8.362981267028927e-8 1.8115821315479749e-7 1.9671229894152076e-7 1.4736095578991629e-8 -1.978728360595719e-7 -2.7421693510095206e-7
          -2.301263417988434e-7 -8.143119640694052e-8 -4.992610040712889e-9 -1.7767169381563024e-7 -3.1169072233570587e-7 -1.1927197020495358e-7
          -2.690170271277402e-7 -4.517371150863539e-9 1.996275507218232e-7 2.672890559809252e-7 1.2233846211704783e-7 -2.845451970697566e-9
          1.241160926168004e-7 2.6686335754268633e-7 1.8903660447010487e-7 -5.470377295107147e-9 -2.1276379844711298e-7 -2.7315551295876106e-7
          -2.6957374802899455e-8 2.645605297336061e-7 3.401281143638903e-7 2.6303895861641577e-7 9.658664201964545e-8 -5.6602722084196215e-9
          1.0986677915022155e-7 2.6706975086534296e-7 2.8985059770671856e-7 2.6682164813814636e-7 2.8659523062342455e-7 2.704195722707852e-7
          1.395429001884606e-7 -4.490719312428755e-9 -6.013721992076222e-8 -5.074872279736985e-9 1.830180529674498e-7 2.6740930225812804e-7
          1.1366622029627385e-8 -2.718591127537595e-7 -2.690170271277402e-7 -3.1738270213918256e-7 2.585300257802521e-7 4.243644528615509e-7
          3.2551088407400303e-7 1.0735962438689768e-7 1.3384686050605157e-8 2.8706008131549575e-7 5.647941415923813e-7 4.829951982920738e-7
          2.6301285950099523e-7 1.2619673330556752e-7 1.3887654247254103e-7 3.6738200976866597e-7 5.756263846140696e-7 5.27522916428879e-7
          3.832722312588343e-7 3.0307495514967596e-7 2.639061038162993e-7 2.4274069297359977e-7 2.8877310349506327e-7 4.511977162541754e-7
          5.649903379404031e-7 4.65126775243213e-7 3.107852875263978e-7 2.6114413415375044e-7 2.584046585297087e-7 2.4476820405871e-7
          2.61152448389972e-7 3.4847506917271236e-7 3.2494525910978417e-7 8.772210904040288e-9 -3.040138509953412e-7 -3.1738270213918256e-7
          0 0 1.2556156949666403e-10 2.5849394142282115e-26 -7.53369416979984e-10 2.0679515313825692e-25
          4.394654932383241e-9 1.6543612251060553e-24 -2.5614560177319452e-8 1.3234889800848443e-23 1.4929270613153353e-7 2.6235424089603697e-7
          1.792752869722661e-7 -6.617444900424222e-24 -1.755274643809824e-7 -2.6235424089603697e-7 -1.7552746427051985e-7 -6.617444900424222e-24
          1.7927528641995332e-7 2.623542408960369e-7 1.4929270933494755e-7 -1.613002194478404e-23 -2.5614578845491016e-8 -2.5849394142282115e-26
          4.394763737998459e-9 4.8467614016778965e-25 -7.540035824997352e-10 8.885729236409477e-27 1.292577569999546e-10 1.0097419586828951e-27
          -2.1542959499992436e-11 -8.077935669463161e-28 0
        </DataArray>
        <DataArray type="Float64" Name="s_zz" format="ascii" RangeMin="-7.698150245386098e-7" RangeMax="6.487668844386685e-7">
          0 0 1.4062895783626372e-10 0 -8.437737470175823e-10 2.0679515313825692e-25
          4.9220135242692305e-9 1.6543612251060553e-24 -2.8688307398597797e-8 6.617444900424222e-24 1.6720783086731758e-7 2.938367498035614e-7
          2.0078832140893807e-7 0 -1.9659076010670026e-7 -2.938367498035614e-7 -1.965907599829822e-7 -6.617444900424222e-24
          2.0078832079034774e-7 2.9383674980356137e-7 1.6720783445514127e-7 -1.7991178323028352e-23 -2.868832830694994e-8 -3.980806697911446e-24
          4.9221353865582715e-9 1.6155871338926322e-25 -8.444840123997033e-10 1.6155871338926322e-26 1.4476868783994916e-10 -6.058451752097371e-28
          -2.4128114639991525e-11 0 0 3.5546050386503447e-7 3.403313779703538e-7 3.5508655642881714e-7
          3.738251733541921e-7 3.7064636286024617e-7 3.58422824229101e-7 3.5002725674287814e-7 2.8133691813786736e-7 8.822906615035871e-8
          -8.678199277829655e-8 -1.0118195220674724e-7 -4.6118693557983836e-8 -1.274009825499679e-8 -1.1101314204227924e-8 -5.1257489312119095e-8
          -3.924001247613873e-8 1.1891972740624462e-7 2.829367313702952e-7 3.1252600045127703e-7 3.117827572800784e-7 3.848022244875876e-7
          3.3792154488166144e-7 -2.2522138729843248e-8 -2.829957707670659e-7 -2.996629565014561e-8 3.4396527186684963e-7 4.46197917029852e-7
          3.5442256580931077e-7 1.4633014417567546e-7 -1.6216264092092759e-10 9.286283058965461e-8 2.649040705355803e-7 3.5546050386503447e-7
          3.0130079715285113e-7 3.0451709979373397e-7 2.978531370256962e-7 2.973966499213388e-7 3.1923537955326277e-7 3.006710371206843e-7
          1.790053338228195e-7 -3.312664193967064e-9 -2.0383389078331079e-7 -3.0192240911344153e-7 -1.7694228235258918e-7 8.114569686945511e-10
          6.104377631985805e-8 2.360029683200821e-9 -1.7663442895897765e-7 -3.030364427773058e-7 -2.039428549424122e-7 -3.652768675891342e-9
          1.7353471280066235e-7 3.015933329194713e-7 3.54496835112758e-7 3.050294064915039e-7 1.2597523416669046e-7 3.66531986814564e-9
          1.244306653256976e-7 3.037445698658749e-7 3.570803328152059e-7 3.015214525253383e-7 1.5415142734791976e-7 3.447417477227642e-11
          -7.576519010228195e-8 1.8079679699754047e-10 3.013007971528511e-7 1.3367994874401724e-7 3.5102022425662435e-7 1.3779001562263345e-7
          -1.2163907667347402e-7 -4.289545214721648e-8 9.890828798287687e-8 2.8659542498276508e-8 -8.706324554076871e-8 -8.168163307401012e-8
          -3.240417012440827e-8 -1.643940671492402e-8 1.6062625382148912e-8 1.1495189439451689e-7 1.7006189758662233e-7 7.12261322229077e-8
          -6.517330856117681e-8 -1.227543316301811e-7 -1.058418231969681e-7 -1.876066947440092e-8 1.2109078443062625e-7 2.963141934112192e-7
          3.7930679976257514e-7 2.4246584577989133e-7 1.065348265267018e-7 1.9225723706654107e-7 3.0836564599302345e-7 2.6359262189976347e-7
          1.4586324613564609e-7 4.31026000495564e-8 1.903462031530204e-9 6.885861047160322e-8 1.4558009087426812e-7 1.336799487440172e-7
          -1.7767805440907397e-9 3.104512247584454e-7 3.520488596624883e-8 -3.117227049896809e-7 -2.1453845617834398e-7 3.1259158074101425e-10
          6.38539746805552e-9 1.9327343105438557e-9 1.8520737493515035e-7 3.1768015783492907e-7 1.6082192150293408e-7 2.4052524482456698e-11
          1.2067793748489116e-7 3.150688855706484e-7 3.7548220596824233e-7 3.1865997230774774e-7 1.613442582192393e-7 3.0611082748584825e-9
          -5.666343295325329e-8 -3.108892023840287e-11 1.9075641691876072e-7 3.0875153078135677e-7 1.4700669888516214e-7 -3.102749709517307e-9
          1.4979851405762427e-7 3.130142684805337e-7 1.9384829185315784e-7 -2.5088549230934314e-9 -7.086661094681028e-8 -1.143759148197879e-10
          2.208584504760509e-7 3.132412037561709e-7 -1.7767805440907475e-9 -2.7619547701940898e-8 -2.6777662849335535e-8 6.734839166294069e-8
          1.6893598976687802e-7 1.9216250539446634e-7 1.5655067826129665e-7 8.16232480829592e-8 5.4573612081612655e-8 1.6259516747941557e-7
          2.4340601373505675e-7 1.3472425030722477e-7 2.506731950056402e-8 1.029526636197187e-7 2.3659433891150286e-7 2.942064016227304e-7
          2.872424005954918e-7 2.2715588467187752e-7 1.7278257500527237e-7 1.8295819274906122e-7 1.5637743454602582e-7 -8.265002961052127e-9
          -1.84201050098311e-7 -2.446626371918892e-7 -1.756407715531134e-7 3.687353950668983e-8 1.8990456792793634e-7 8.0476585651042e-8
          -7.786787559878997e-8 -7.158628409635638e-8 -7.850566330692725e-9 6.167351209165489e-9 -7.699864805133383e-9 -2.761954770194089e-8
          4.490404699646004e-10 -3.250984935799811e-7 1.1404719614272382e-7 6.487668844386685e-7 6.099413461084415e-7 3.238615672959712e-7
          1.1681853414518532e-7 -1.911379029960039e-9 -2.3051797915508618e-8 -3.3399070865695264e-9 4.871088817480061e-10 -1.4384949559237797e-9
          1.015536455047255e-9 -4.639466831215043e-9 -3.0892174760586855e-8 -5.2468773372415575e-9 1.447921354346475e-7 3.2470374925446334e-7
          4.3996684982158876e-7 3.236485713805644e-7 -1.911839518240691e-7 -6.498096532812099e-7 -5.975074664797565e-7 -3.2456497591977046e-7
          -1.2126976610131393e-7 -3.2645143626064133e-9 1.3808101958132761e-8 2.888735539309663e-9 3.691803905933032e-8 3.8116667300600794e-10
          -2.22236727464852e-7 -3.243944879879603e-7 4.4904046996459895e-10 8.522423430107587e-9 -2.372803101166724e-7 5.459194134224143e-8
          4.3049595358026043e-7 4.3678850237079603e-7 2.3661650979892865e-7 -6.873102050261613e-9 -1.7313810150328302e-7 -1.416362568866439e-7
          -6.434547567248823e-8 -9.324366533296013e-8 -1.6479857555045777e-7 -2.1547795600737942e-7 -2.617942511234768e-7 -3.2025990531850144e-7
          -2.5322771467130243e-7 7.694952473927144e-8 3.970862536257175e-7 4.3399691270053295e-7 2.12499471192825e-7 -2.4258810166829983e-7
          -6.119688099800658e-7 -5.763456578396971e-7 -3.858664181034074e-7 -2.906788636274095e-7 -1.7841176645818643e-7 6.33061013577789e-8
          2.4737180915783376e-7 1.866824262793253e-7 3.08173568587824e-8 -7.06439949672662e-8 -8.798213688232353e-8 8.522423430107587e-9
          -1.3345379825676914e-10 2.824389518533253e-9 -5.929779685065875e-9 -4.462577364150548e-9 2.9159380526182745e-8 -3.482871340631325e-9
          -2.0080829829115823e-7 -3.3158153964295887e-7 -1.6456723471359394e-7 1.0356477223091156e-9 -1.3397186110987696e-7 -3.316934978764134e-7
          -3.542329992435616e-7 -3.291119175024747e-7 -3.8385180494430554e-7 -3.298352621957135e-7 2.155511011664226e-8 3.280734952496918e-7
          2.4747407646036515e-7 -2.5166098874576353e-9 -2.0417202742989683e-7 -3.2626068762024667e-7 -3.3755110191180124e-7 -3.285009407211036e-7
          -3.895678744646965e-7 -3.3209733772224984e-7 3.2565234926566604e-8 3.287863752696741e-7 1.8093261509499403e-7 -1.1740581761626572e-9
          1.9228834287751497e-7 3.348063628166194e-7 -1.3345379825676903e-10 -5.164116504530453e-9 8.050432343334707e-8 3.603977532135516e-8
          -6.195863638734352e-8 -1.3689178723958626e-7 -2.1988434001013443e-7 -3.4206095747374946e-7 -3.598265801659318e-7 -1.2958614862218184e-7
          4.3080227795384957e-8 -1.4740756027534694e-7 -3.6216319605723477e-7 -2.623003627731357e-7 -1.0618161813839376e-7 -1.5216951986835303e-7
          -1.972840143491991e-7 -3.854504796711751e-8 1.1502283503316165e-7 5.439509040690829e-8 -7.719226649207484e-8 -1.3650322030998501e-7
          -1.4444951018470853e-7 -1.2194287525413163e-7 -1.5852958931360262e-7 -3.4375592615846964e-7 -4.4388097527547763e-7 -2.2516382615137166e-7
          -7.729986126029758e-9 -1.1170496253932973e-7 -1.6175242359927558e-7 2.1746396248612858e-7 4.587310975675034e-7 -5.164116504530453e-9
          1.047131214947854e-10 -1.308250844373996e-9 2.615941959703445e-8 9.625193035800054e-12 -1.6225573330905416e-7 -3.3681581256422524e-7
          -3.9984976922746713e-7 -3.359533575319275e-7 -1.297223317107539e-7 -9.073743478128333e-10 -1.6925916802697066e-7 -3.359284486533059e-7
          -2.02065952131897e-7 -6.437131311990639e-10 3.5366233680332666e-8 1.9141888092013284e-9 -5.0495472380900105e-9 -8.754882635748071e-11
          2.237609679582797e-9 1.3378990708457114e-9 -3.3747098614537815e-9 1.8054058880732316e-9 3.0583869324815753e-8 1.2733676269890466e-9
          -1.6781341202719162e-7 -3.3352729790471005e-7 -3.527191182725499e-7 -3.3813847668151605e-7 -4.0253497668241267e-7 -3.376431492764142e-7
          6.480247453530521e-8 3.342392951891425e-7 1.0471312149478547e-10 1.2091272939241726e-8 -1.616556738438967e-7 -1.7955616657955073e-7
          -1.650844234459308e-7 -2.417146626212475e-7 -3.373998037769434e-7 -3.800927665844611e-7 -3.5160536311051914e-7 -2.3374940542183665e-7
          -1.5082622207846324e-7 -2.271371416404487e-7 -3.509550217819794e-7 -4.105527201772415e-7 -3.54908709623058e-7 -1.3300146291625166e-7
          9.624436088241425e-8 1.7390410271217635e-7 1.730913410442002e-7 1.669196543496513e-7 1.7466860404015024e-7 2.1561775152731765e-7
          2.2173006443572064e-7 1.249685103899263e-7 3.6612213105896525e-8 6.79402962995933e-8 8.542042293852425e-8 -4.4479744009803026e-8
          -2.3417751685740265e-7 -3.960902079162884e-7 -3.98123265421931e-7 -1.0818213760980111e-7 1.398503252629677e-7 1.2091272939241726e-8
          -1.895951442251088e-10 -3.418458039123484e-7 -4.002732376212826e-7 -3.4143313191899817e-7 -3.3128672245346594e-7 -3.407997590398329e-7
          -3.4093799149324677e-7 -3.403145415650354e-7 -3.4754253100652684e-7 -3.4193382349531225e-7 -3.02800282708983e-7 -3.4031960500684245e-7
          -5.646694867481941e-7 -6.82597843048374e-7 -4.008525890227188e-7 -1.2213149470237915e-9 2.3450838890291587e-7 3.412683585658788e-7
          3.539904300806436e-7 3.416196384589782e-7 3.731010187126502e-7 3.408976645919643e-7 1.3747266984722546e-7 -3.1939383930347873e-10
          1.6437604521464045e-7 3.4128097763949605e-7 2.401173940657023e-7 1.3963678585099888e-9 -2.3437102761682987e-7 -3.3992788465076435e-7
          -1.880172955337402e-7 -7.382143401097612e-10 -1.8959514422510897e-10 -4.381121923861752e-8 -4.626888179880081e-7 -4.164258255074454e-7
          -2.5563509370405375e-7 -3.3092947448495787e-7 -4.235794271936019e-7 -3.1485541117343e-7 -2.1823998579258887e-7 -3.4721571041922536e-7
          -4.673569874351285e-7 -3.4423821922208713e-7 -2.1842631906673433e-7 -3.3048820025570297e-7 -4.721423273413284e-7 -4.351071648759466e-7
          -2.69996253655838e-7 -2.7423134477283395e-8 2.1004452423042279e-7 3.5983905403798597e-7 4.0618905070483677e-7 3.3332310999040595e-7
          1.9948954696387737e-7 6.293667669443506e-8 -2.500387165925661e-8 -1.3000468938533226e-8 3.402542291031597e-8 5.115234194100164e-8
          1.1626813349796222e-8 -1.1130463766702768e-7 -1.9456597268645988e-7 -1.1508115328549013e-7 -1.683472146818658e-8 -4.3811219238617514e-8
          2.096967507891142e-10 -3.427544263395593e-7 -2.0023980647049616e-7 1.0188873180699778e-9 -1.6571301401376965e-7 -3.4294109107744667e-7
          -1.731709244843925e-7 8.404758656046064e-10 -1.6366389992724348e-7 -3.427321235350884e-7 -2.124122666300817e-7 8.413651655291296e-10
          7.057446622949666e-8 1.8505537759484e-9 -2.0026685498098809e-7 -3.434723698697159e-7 -2.354606007186384e-7 -8.006543776831532e-10
          2.3593836230322188e-7 3.430248662191025e-7 1.8872727426498455e-7 -7.503298096361887e-10 7.961377447363701e-10 1.1955079558166802e-10
          -1.9602721678962087e-7 -3.4472233625216423e-7 -2.0304397883334145e-7 -5.484070895108791e-11 3.51823819452085e-8 7.273341805382575e-10
          -5.360338951560786e-9 8.017706611996046e-11 2.0969675078911971e-10 2.07023998098492e-7 8.780031122421425e-8 1.6431296379944113e-7
          2.50257936819763e-7 1.5933121128077e-7 6.866666806756284e-8 1.5539818806524215e-7 2.4915993391057763e-7 1.795860682403387e-7
          9.543484187633306e-8 1.4546450564036817e-7 2.492395250847482e-7 3.263243657617775e-7 3.254268650764376e-7 1.9525486043371002e-7
          3.833370619655298e-8 -4.2811243272075466e-8 -3.184547833422248e-8 8.756551064806476e-8 1.6941343149743935e-7 6.768999203655436e-8
          -3.9519234425006404e-8 2.5871325422340863e-8 6.2979044551474e-8 -1.290787040647292e-7 -2.682801065256785e-7 -7.260334893078398e-8
          1.9488882789846865e-7 2.7113368314059364e-7 2.0176774097791e-7 3.2427525592736876e-8 -3.358703227903329e-8 2.07023998098492e-7
          3.4470170922791424e-7 3.4519967460922043e-7 3.449405236471783e-7 3.4460086782648993e-7 3.4485731863185724e-7 3.451575815735766e-7
          3.449493621619445e-7 3.446832761082031e-7 3.4480993912359457e-7 3.4524286248500846e-7 3.4589555746933436e-7 3.4468339413876477e-7
          3.395217425554925e-7 3.447164992165068e-7 3.745735606187967e-7 3.452098953143628e-7 1.7274247185520527e-7 1.7777508891959841e-10
          -2.9477710136898723e-8 -1.7060930121695042e-10 4.1524521169976665e-9 9.757181867475626e-11 4.270847504743947e-9 3.888563674109134e-10
          -2.78318244011188e-8 3.2383628770134946e-10 1.6557086952241786e-7 3.4474893572080896e-7 4.1469769530065316e-7 3.4440238289027615e-7
          1.0284823311800397e-7 -2.8018208112836857e-10 3.4470170922791424e-7 2.0690985769246407e-7 3.2163404285264985e-8 9.98715004335916e-8
          2.0591355154590025e-7 1.4616896303064704e-7 6.892780374213458e-8 1.224801425346653e-7 1.7249467274826296e-7 8.464008772295142e-8
          6.439541241377674e-9 8.541618708618906e-8 1.723656442257187e-7 1.1808353162829982e-7 3.961402522135387e-8 5.400130093230206e-8
          7.734904551870132e-8 2.5760945738108154e-8 -4.261599067225165e-8 -6.963475597515229e-8 -5.525521996720631e-8 5.62747554973756e-10
          -1.3489265547441053e-9 -1.601583154424919e-7 -2.685504976889293e-7 -1.1921055187471613e-7 8.994245020145518e-8 1.6098943674089216e-7
          1.9926411225171655e-7 3.101001812420503e-7 3.8023772712592567e-7 2.9641683331737536e-7 1.9364003258376594e-7 2.0690985769246394e-7
          2.0808677637621648e-10 -3.4353919660369035e-7 -2.0112015209422383e-7 3.934004450793623e-10 -1.6607035884547722e-7 -3.429374077038804e-7
          -1.7263372386811693e-7 -2.409037538279509e-10 -1.7084054377665446e-7 -3.439874209523652e-7 -1.7923631229672887e-7 -2.429570785658022e-10
          -1.3066309456669642e-7 -3.424788503436298e-7 -4.0767234999187505e-7 -3.4292205030974055e-7 -1.649064080955348e-7 -9.525747175686042e-10
          2.1612298455847067e-8 -4.4208627414942473e-10 2.9653973393580285e-8 -2.1192959586809203e-10 -2.0215220229739887e-7 -3.4485469701822853e-7
          -1.9700726606557398e-7 6.28422140355634e-10 7.290699179350922e-9 6.873596290881001e-12 1.558042539360546e-7 3.435426447911305e-7
          4.3208185075400716e-7 3.435832165179879e-7 2.0808677637621242e-10 -4.347385845473509e-8 -2.559943431421302e-7 -1.7225655193471729e-7
          -8.2317527995925e-8 -2.762343144891816e-7 -4.2435125672302776e-7 -1.9701270000600413e-7 5.060725608313811e-8 -3.6665488034352183e-8
          -1.6206628152642577e-7 -2.8830473561033248e-8 5.103753270960715e-8 -2.3446666586672284e-7 -5.627433689714277e-7 -6.111928762859122e-7
          -4.275629456621982e-7 -5.960133495230756e-8 2.418785487587826e-7 2.2606329838609527e-7 9.261585612878984e-8 4.119916418602605e-8
          4.4420484700866333e-8 7.488707981637321e-8 6.176876184195661e-8 -6.576465691297367e-8 -1.738932404462062e-7 -1.2879705275552977e-7
          -1.3050607383148152e-9 1.3775376870806815e-7 2.555549922007793e-7 3.192741663569787e-7 2.4692623489802195e-7 -4.3473858454735094e-8
          -1.8022138741673158e-10 -8.421298569868039e-10 3.201560872982874e-8 -1.3568538273059462e-9 -2.0070936572872675e-7 -3.408212047521149e-7
          -1.9647164867515155e-7 2.416081652588933e-9 2.5918765381532478e-8 1.8094016174374716e-9 5.7860989466062235e-8 2.428151059441731e-9
          -3.5613449147038904e-7 -6.803528246896604e-7 -6.327527351646027e-7 -3.408599462621675e-7 6.779981865069317e-8 3.421528846234927e-7
          2.3112557670574444e-7 2.4086984328971898e-9 -7.630694665959985e-8 1.3284313068528513e-9 2.416646222108551e-7 3.4211460386488613e-7
          9.135408142558831e-11 -3.397796830476696e-7 -2.3287306343054228e-7 1.0370485523843632e-9 4.217648852068712e-8 3.0771110355340734e-9
          -3.729229341906495e-9 1.8281117349237184e-9 -1.8022138741673075e-10 1.0884794234984277e-8 4.7558339900103373e-8 1.7415986838964245e-7
          2.0508936552153083e-7 -4.5253182886302235e-8 -3.34639566265478e-7 -4.208415740476178e-7 -4.0626012113670964e-7 -3.9329612243674143e-7
          -3.774074513795947e-7 -3.540519813971511e-7 -4.078149167104633e-7 -6.232814615405839e-7 -7.698150245386098e-7 -6.16779014355638e-7
          -3.3025812603251116e-7 -7.63370546100723e-8 1.7649271236681584e-8 -1.7563407716724693e-7 -3.912390546211695e-7 -3.642176159243979e-7
          -2.1370451310868645e-7 -5.883449820578919e-8 -2.2625880397772447e-8 -2.2809696886670266e-7 -4.120925215180552e-7 -3.1145729625730584e-7
          -1.8793020110868606e-7 -3.032501440964275e-7 -4.4533054020606716e-7 -4.0208480442314126e-7 -2.3088800389400564e-7 1.0884794234984276e-8
          5.842963262886951e-11 4.9920955592831203e-11 2.144666208418214e-7 3.3632239311200675e-7 5.863110158684114e-8 -3.367099230680589e-7
          -5.678033501870771e-7 -6.734976239297892e-7 -6.926411884557714e-7 -6.738269462835877e-7 -6.656477999318029e-7 -6.735573095234158e-7
          -7.03009035181425e-7 -6.753675313604279e-7 -5.119973525150216e-7 -3.365594864304567e-7 -2.727149208919838e-7 -3.3483047220196125e-7
          -5.372729566627477e-7 -6.725109098386082e-7 -5.33012867293808e-7 -3.370109263050314e-7 -3.027371841489627e-7 -3.3769415191234324e-7
          -3.4938434068191445e-7 -3.38030108200625e-7 -3.0385381221142363e-7 -3.363643159640656e-7 -5.25070482708306e-7 -6.736542867838978e-7
          -5.857977025305935e-7 -3.362952802809117e-7 5.842963262886882e-11 -8.214621627256793e-10 1.8345661860050254e-8 1.5931598162457118e-7
          2.2797036243144993e-7 3.018966958129951e-8 -2.2981966449723788e-7 -3.478512073755202e-7 -3.629023601395171e-7 -3.139705238751984e-7
          -2.7260918782774587e-7 -3.1037184124234227e-7 -3.5730170593295104e-7 -3.4344200371353645e-7 -3.016695323214944e-7 -2.648610894942203e-7
          -2.4370571731625556e-7 -2.4889245787214125e-7 -2.976807228380543e-7 -4.0732992389017177e-7 -4.608100696721928e-7 -3.410911688278165e-7
          -1.5872063973788412e-7 -2.424590078323652e-8 2.887871272629889e-8 -3.280113451910527e-8 -1.2737798434882422e-7 -1.7294437859223348e-7
          -2.1494989619773515e-7 -2.988441161137312e-7 -3.656216293663221e-7 -3.562770269816073e-7 -2.437103056752032e-7 -8.214621627256795e-10
          7.464664204820122e-11 1.4424660422101952e-9 2.081499189235102e-9 2.9356737849841383e-9 4.948917531318588e-9 -3.958973106418965e-9
          -3.586820166288604e-8 -1.0944767494096986e-9 1.9004649302268295e-7 3.246341352941847e-7 1.8974787770588816e-7 -8.260801878062763e-10
          -3.33015388324984e-8 -9.540824915266367e-10 2.940704571770959e-9 -4.618792256197339e-9 -6.63418758902321e-9 -4.557225944942099e-9
          1.6034815781044353e-10 -5.916530908661881e-9 -3.622292877225517e-8 4.964410862082922e-10 1.9549686518590656e-7 3.3245597056844677e-7
          1.950513842754364e-7 4.258875130842096e-10 -3.427773851240113e-8 -2.089450580263706e-9 3.960794530252345e-9 -1.650868487178683e-9
          -4.448304938882534e-9 -4.012728628069967e-9 7.464664204820157e-11 -6.978819241213804e-9 -1.5420724057765566e-7 -2.3929899376907874e-7
          -1.8422753673469066e-7 8.903367260630087e-8 2.7208096627439124e-7 5.651067629007563e-8 -1.105835639075073e-7 2.1789187912078175e-7
          5.153514730061585e-7 2.552096853798388e-7 -1.305763757948055e-7 -2.1004960255440304e-7 -8.628179991678126e-8 1.3765522710023277e-7
          3.2116069498655847e-7 3.2363382023211533e-7 2.836294204790108e-7 3.397023133693523e-7 3.2972947465532904e-7 9.158788008913022e-8
          -1.5234289378457444e-7 -1.7968327042111496e-7 -1.293031287242966e-7 -1.4007234759792463e-7 -1.275235004162899e-7 -7.18916055368321e-9
          7.86771870127595e-8 -1.2177942694097689e-8 -6.383732710205517e-8 1.396162563610867e-7 2.6847252115985725e-7 -6.978819241213805e-9
          -4.2994829162448794e-10 -3.208671142109762e-7 -4.406604605613674e-7 -3.206103534538356e-7 7.848284100058131e-8 3.2587255824287585e-7
          -9.18776628595949e-9 -3.2189989795070527e-7 -7.465602116140664e-9 3.2808249760295597e-7 7.871177759180677e-8 -3.230335822711557e-7
          -4.4460940210749897e-7 -3.196833432919302e-7 1.8076932800843872e-8 3.2865391379761824e-7 3.7203008732518783e-7 3.2573095746188444e-7
          3.672820282860394e-7 3.27014515587252e-7 3.52596351551217e-8 -3.2241640119623484e-7 -5.604473816527005e-7 -6.429528530047557e-7
          -5.340523620428801e-7 -3.2053707447047345e-7 -8.919815599093591e-8 2.6046622915802054e-9 -2.0248835072707763e-7 -3.1912129857224907e-7
          3.806171523072629e-8 3.2548429666366285e-7 -4.2994829162448577e-10 2.7226322315066387e-8 -3.624285470845766e-7 -4.844105439029121e-7
          -4.0129443387460117e-7 -1.7565498273430486e-7 -7.536132189482244e-9 -9.698182394759284e-8 -2.1848903992380502e-7 -1.4655476203328706e-7
          -3.784581574269259e-8 -4.902902651867551e-8 -1.4775100039513127e-7 -3.016583434059555e-7 -4.0518071401633723e-7 -3.527477706914651e-7
          -2.1967143345214308e-7 -8.126362231917462e-8 1.0586859945289402e-8 3.9912105790980625e-9 -5.39872401646555e-8 -1.1628516203287816e-7
          -2.0785106111765829e-7 -3.536334435110841e-7 -4.6646392333322525e-7 -4.5917411470415124e-7 -3.6922609539631893e-7 -2.3408194318218535e-7
          -1.7947863640272758e-7 -3.3115315339892314e-7 -4.3196323297434166e-7 -2.2476661393255277e-7 1.883160430454829e-8 2.7226322315066384e-8
          1.7710515926419752e-9 -3.151707084102311e-7 -3.662079115580864e-7 -3.1824898262864535e-7 -3.3820234639962933e-7 -3.1232553465658944e-7
          -1.268760791850771e-7 -2.826110836678059e-9 -1.6114776046297856e-7 -3.1162947604333706e-7 -1.640597055571123e-7 1.7497441869399277e-9
          -9.401293361993631e-8 -3.171679580383498e-7 -5.335355481289094e-7 -6.280713046441744e-7 -4.857308283367047e-7 -3.109238541358677e-7
          -3.0806011697103176e-7 -3.1471783112542644e-7 -1.6847521088228193e-7 -2.671124749492425e-9 4.935555876504782e-8 -6.9827055642152535e-9
          -1.6627346296283562e-7 -3.1526974276952907e-7 -3.407245743230116e-7 -3.1309911521634496e-7 -3.0285452304259124e-7 -3.186958003237894e-7
          -3.6932794958197856e-7 -3.1056699191166574e-7 1.7710515926419742e-9 -1.33584606629548e-7 -2.232657218292103e-7 -1.1435694025183496e-7
          -1.3027733869539771e-8 -1.2544757465444258e-7 -2.157171766050035e-7 -4.793725371968281e-8 9.624469312210093e-8 -6.481883695907093e-8
          -2.8219946995123256e-7 -3.0696883184241836e-7 -2.2656384615648459e-7 -1.284214364172874e-7 -8.591669178223616e-8 -1.7242470140874002e-7
          -2.8686668173372064e-7 -3.2816384919409906e-7 -2.9394254113541797e-7 -1.8182909490321964e-7 -5.53308033748863e-8 2.204504057219955e-8
          9.366539019072405e-8 2.0289719873337311e-7 2.203177748145032e-7 1.650442704847063e-8 -2.216175763867205e-7 -3.0712296731306627e-7
          -2.5774150281470464e-7 -9.120293997577345e-8 -5.591723245598509e-9 -1.989922970735059e-7 -3.4909360901599063e-7 -1.33584606629548e-7
          -3.0129907038306905e-7 -5.059455688967199e-9 2.2358285680844195e-7 2.9936374269863624e-7 1.3701907757109363e-7 -3.1869062071812216e-9
          1.3901002373081646e-7 2.9888696044780867e-7 2.1172099700651745e-7 -6.126822570520005e-9 -2.3829545426076654e-7 -3.059341745138124e-7
          -3.019225977924742e-8 2.9630779330163883e-7 3.8094348808755713e-7 2.946036336503855e-7 1.0817703906200289e-7 -6.3395048734300226e-9
          1.2305079264824813e-7 2.991181209691841e-7 3.2463266943152486e-7 2.98840245914724e-7 3.209866582982355e-7 3.028699209432794e-7
          1.562880482110758e-7 -5.029605629920202e-9 -6.73536863112537e-8 -5.683856953305449e-9 2.0498021932354372e-7 2.9949841852910335e-7
          1.2730616673182692e-8 -3.0448220628421057e-7 -3.0129907038306905e-7 -3.554686263958845e-7 2.895536288738823e-7 4.75288187204937e-7
          3.645721901628835e-7 1.2024277931332547e-7 1.4990848376677814e-8 3.215072910733553e-7 6.325694385834672e-7 5.409546220871228e-7
          2.945744026411147e-7 1.4134034130223566e-7 1.5554172756924592e-7 4.1146785094090596e-7 6.44701550767758e-7 5.908256664003445e-7
          4.2926489900989457e-7 3.394439497676371e-7 2.955748362742552e-7 2.718695761304318e-7 3.2342587591447085e-7 5.053414422046764e-7
          6.327891784932513e-7 5.209419882723985e-7 3.480795220295655e-7 2.924814302522005e-7 2.894132175532737e-7 2.7414038854575505e-7
          2.9249074219676855e-7 3.902920774734378e-7 3.639386902029582e-7 9.824876212525145e-9 -3.404955131147821e-7 -3.554686263958845e-7
          0 0 1.4062895783626372e-10 0 -8.437737470175823e-10 2.0679515313825692e-25
          4.9220135242692305e-9 1.6543612251060553e-24 -2.8688307398597797e-8 6.617444900424222e-24 1.6720783086731758e-7 2.938367498035614e-7
          2.0078832140893807e-7 0 -1.9659076010670026e-7 -2.938367498035614e-7 -1.965907599829822e-7 -6.617444900424222e-24
          2.0078832079034774e-7 2.9383674980356137e-7 1.6720783445514127e-7 -1.7991178323028352e-23 -2.868832830694994e-8 -3.980806697911446e-24
          4.9221353865582715e-9 1.6155871338926322e-25 -8.444840123997033e-10 1.6155871338926322e-26 1.4476868783994916e-10 -6.058451752097371e-28
          -2.4128114639991525e-11 0 0
        </DataArray>
        <DataArray type="Float64" Name="theta" format="ascii" RangeMin="272.99999999999994" RangeMax="319.83939494429023">
          273 273 273 273 273 273
          273 273 273 273 273 272.99999999999994
          273 273 273 273.00000000000006 273 273
          273 272.99999999999994 273 273 273 273
          273 273 273 273 273 273
          273 273 273 277.92872381660175 277.9287238166018 277.9287238166018
          277.92872381660175 277.92872381660175 277.92872381660175 277.92872381660175 277.92872381660175 277.9287238166018
          277.9287238166018 277.9287238166018 277.9287238166018 277.9287238166018 277.9287238166018 277.9287238166018
          277.9287238166018 277.9287238166018 277.9287238166018 277.92872381660175 277.92872381660175 277.9287238166018
          277.9287238166018 277.92872381660186 277.9287238166018 277.9287238166018 277.92872381660175 277.92872381660175
          277.92872381660175 277.9287238166018 277.9287238166018 277.9287238166018 277.9287238166018 277.92872381660175
          282.7033468631342 282.70334686313413 282.70334686313413 282.7033468631342 282.70334686313413 282.7033468631342
          282.7033468631342 282.7033468631342 282.70334686313424 282.70334686313424 282.70334686313424 282.70334686313424
          282.70334686313424 282.70334686313424 282.70334686313424 282.70334686313424 282.70334686313424 282.70334686313424
          282.7033468631342 282.7033468631342 282.7033468631342 282.70334686313413 282.7033468631342 282.7033468631342
          282.7033468631342 282.7033468631342 282.70334686313413 282.7033468631342 282.7033468631342 282.7033468631342
          282.7033468631342 282.7033468631342 282.70334686313413 287.2985515314625 287.2985515314625 287.2985515314625
          287.2985515314625 287.2985515314625 287.2985515314625 287.2985515314626 287.2985515314626 287.2985515314626
          287.2985515314626 287.2985515314626 287.2985515314626 287.2985515314626 287.2985515314626 287.2985515314626
          287.2985515314626 287.2985515314626 287.2985515314626 287.2985515314626 287.2985515314626 287.2985515314625
          287.2985515314625 287.2985515314625 287.2985515314626 287.2985515314626 287.2985515314625 287.2985515314625
          287.2985515314625 287.2985515314625 287.2985515314625 287.2985515314625 287.2985515314625 287.29855153146246
          291.6886030256122 291.6886030256122 291.6886030256122 291.6886030256122 291.6886030256122 291.6886030256122
          291.6886030256123 291.6886030256123 291.6886030256122 291.6886030256123 291.6886030256122 291.6886030256123
          291.6886030256122 291.6886030256123 291.6886030256122 291.6886030256122 291.6886030256122 291.6886030256123
          291.6886030256122 291.6886030256122 291.6886030256122 291.6886030256123 291.68860302561234 291.68860302561234
          291.68860302561234 291.6886030256123 291.6886030256123 291.6886030256123 291.6886030256123 291.6886030256123
          291.6886030256123 291.6886030256123 291.6886030256122 295.8476335239411 295.8476335239411 295.8476335239411
          295.8476335239411 295.8476335239411 295.8476335239411 295.8476335239412 295.8476335239412 295.8476335239412
          295.8476335239413 295.8476335239412 295.8476335239413 295.8476335239412 295.8476335239413 295.8476335239412
          295.8476335239412 295.8476335239412 295.8476335239413 295.8476335239412 295.8476335239412 295.8476335239412
          295.8476335239413 295.84763352394134 295.84763352394134 295.84763352394134 295.8476335239413 295.8476335239413
          295.8476335239413 295.8476335239413 295.8476335239413 295.8476335239413 295.8476335239412 295.8476335239411
          299.74995669163786 299.74995669163786 299.7499566916378 299.7499566916378 299.7499566916378 299.7499566916378
          299.7499566916379 299.749956691638 299.74995669163803 299.7499566916381 299.74995669163803 299.74995669163803
          299.74995669163803 299.7499566916381 299.7499566916381 299.7499566916381 299.74995669163803 299.74995669163803
          299.74995669163803 299.74995669163803 299.74995669163803 299.7499566916381 299.7499566916381 299.74995669163815
          299.7499566916381 299.7499566916381 299.74995669163803 299.74995669163803 299.74995669163803 299.7499566916381
          299.7499566916381 299.74995669163803 299.74995669163786 303.3704075226787 303.37040752267876 303.3704075226787
          303.3704075226787 303.37040752267865 303.3704075226787 303.3704075226788 303.3704075226788 303.3704075226789
          303.3704075226789 303.3704075226789 303.3704075226789 303.3704075226789 303.37040752267893 303.37040752267893
          303.37040752267893 303.3704075226789 303.3704075226789 303.3704075226789 303.3704075226789 303.3704075226789
          303.37040752267893 303.37040752267893 303.37040752267893 303.37040752267893 303.3704075226789 303.3704075226789
          303.3704075226789 303.3704075226789 303.3704075226789 303.3704075226789 303.3704075226788 303.3704075226787
          306.6847009593043 306.68470095930434 306.68470095930434 306.6847009593043 306.6847009593043 306.6847009593043
          306.68470095930434 306.6847009593044 306.6847009593044 306.6847009593043 306.6847009593043 306.6847009593044
          306.6847009593044 306.6847009593044 306.6847009593044 306.6847009593044 306.6847009593044 306.6847009593043
          306.6847009593043 306.6847009593043 306.6847009593044 306.6847009593044 306.6847009593044 306.6847009593044
          306.6847009593044 306.6847009593044 306.6847009593043 306.6847009593043 306.6847009593043 306.6847009593044
          306.6847009593043 306.6847009593043 306.6847009593042 309.66980130647 309.66980130647005 309.66980130647
          309.66980130647 309.66980130647 309.66980130647 309.66980130647005 309.66980130647 309.66980130647
          309.66980130647 309.66980130647 309.66980130647005 309.66980130647 309.66980130647005 309.66980130647005
          309.66980130647005 309.66980130647 309.66980130647 309.66980130647 309.66980130647 309.66980130647
          309.66980130647 309.66980130647 309.66980130647005 309.66980130647005 309.66980130647005 309.66980130647
          309.66980130647 309.66980130647 309.66980130647 309.66980130647 309.66980130647 309.66980130647
          312.30429322728946 312.3042932272896 312.3042932272896 312.30429322728946 312.3042932272896 312.30429322728963
          312.30429322728963 312.3042932272896 312.3042932272896 312.3042932272896 312.3042932272896 312.30429322728963
          312.3042932272896 312.3042932272896 312.3042932272896 312.3042932272896 312.3042932272896 312.3042932272896
          312.3042932272896 312.30429322728946 312.3042932272896 312.3042932272896 312.3042932272896 312.3042932272896
          312.3042932272896 312.30429322728963 312.3042932272896 312.3042932272896 312.3042932272896 312.3042932272896
          312.30429322728946 312.30429322728946 312.3042932272896 314.5687441725456 314.5687441725456 314.5687441725456
          314.5687441725456 314.5687441725457 314.56874417254573 314.56874417254573 314.5687441725457 314.5687441725456
          314.5687441725457 314.5687441725457 314.56874417254573 314.5687441725457 314.5687441725457 314.5687441725456
          314.5687441725456 314.5687441725457 314.5687441725457 314.5687441725457 314.5687441725456 314.5687441725457
          314.5687441725457 314.5687441725456 314.5687441725456 314.5687441725456 314.5687441725457 314.5687441725457
          314.5687441725457 314.56874417254573 314.5687441725457 314.5687441725456 314.5687441725456 314.5687441725456
          316.4460475541917 316.4460475541917 316.4460475541917 316.44604755419164 316.4460475541917 316.44604755419175
          316.44604755419175 316.4460475541917 316.4460475541917 316.4460475541917 316.4460475541917 316.44604755419175
          316.44604755419175 316.44604755419175 316.4460475541917 316.4460475541917 316.4460475541917 316.44604755419175
          316.4460475541917 316.4460475541917 316.4460475541917 316.4460475541917 316.4460475541917 316.44604755419164
          316.44604755419164 316.4460475541917 316.4460475541917 316.44604755419175 316.44604755419175 316.4460475541917
          316.4460475541917 316.4460475541917 316.4460475541917 317.921735893523 317.921735893523 317.921735893523
          317.92173589352296 317.921735893523 317.921735893523 317.921735893523 317.92173589352296 317.92173589352296
          317.921735893523 317.921735893523 317.921735893523 317.921735893523 317.921735893523 317.921735893523
          317.921735893523 317.921735893523 317.921735893523 317.92173589352296 317.9217358935229 317.92173589352296
          317.92173589352296 317.92173589352296 317.92173589352296 317.92173589352296 317.92173589352296 317.92173589352296
          317.92173589352296 317.92173589352296 317.92173589352296 317.92173589352296 317.921735893523 317.92173589352296
          318.9842536075381 318.98425360753816 318.98425360753816 318.9842536075381 318.98425360753816 318.9842536075381
          318.9842536075381 318.98425360753805 318.9842536075381 318.9842536075381 318.9842536075381 318.98425360753805
          318.9842536075381 318.9842536075381 318.98425360753816 318.9842536075381 318.9842536075381 318.9842536075381
          318.98425360753805 318.98425360753805 318.98425360753805 318.9842536075381 318.9842536075381 318.98425360753805
          318.98425360753805 318.9842536075381 318.9842536075381 318.98425360753794 318.98425360753794 318.98425360753805
          318.9842536075381 318.9842536075381 318.9842536075381 319.62518005700144 319.6251800570015 319.6251800570015
          319.62518005700144 319.6251800570015 319.62518005700144 319.62518005700144 319.62518005700144 319.62518005700144
          319.62518005700144 319.62518005700144 319.62518005700144 319.62518005700144 319.62518005700144 319.62518005700144
          319.62518005700144 319.62518005700144 319.62518005700144 319.62518005700144 319.62518005700144 319.62518005700144
          319.6251800570015 319.6251800570015 319.62518005700144 319.62518005700144 319.6251800570015 319.62518005700144
          319.6251800570014 319.6251800570014 319.62518005700144 319.62518005700144 319.62518005700144 319.62518005700144
          319.8393949442902 319.8393949442902 319.83939494429006 319.83939494429006 319.83939494429006 319.83939494429006
          319.8393949442902 319.83939494429006 319.8393949442902 319.83939494429006 319.8393949442902 319.83939494429006
          319.8393949442902 319.8393949442902 319.83939494429006 319.8393949442902 319.8393949442902 319.8393949442902
          319.83939494429023 319.8393949442902 319.83939494429023 319.83939494429023 319.8393949442902 319.8393949442902
          319.8393949442902 319.8393949442902 319.8393949442902 319.83939494429006 319.83939494429006 319.83939494429006
          319.8393949442902 319.8393949442902 319.83939494429006 319.6251800570015 319.6251800570015 319.6251800570015
          319.6251800570015 319.6251800570015 319.6251800570015 319.6251800570015 319.6251800570015 319.6251800570015
          319.6251800570015 319.6251800570015 319.6251800570015 319.6251800570015 319.6251800570015 319.6251800570015
          319.6251800570015 319.6251800570015 319.6251800570015 319.6251800570015 319.6251800570015 319.6251800570015
          319.6251800570015 319.62518005700156 319.6251800570015 319.6251800570015 319.6251800570015 319.62518005700144
          319.62518005700144 319.62518005700144 319.62518005700144 319.6251800570015 319.6251800570015 319.62518005700144
          318.98425360753805 318.98425360753805 318.984253607538 318.984253607538 318.98425360753805 318.98425360753805
          318.98425360753805 318.984253607538 318.98425360753805 318.984253607538 318.98425360753805 318.984253607538
          318.98425360753805 318.98425360753805 318.98425360753805 318.98425360753805 318.98425360753805 318.98425360753794
          318.98425360753794 318.98425360753794 318.98425360753794 318.984253607538 318.98425360753805 318.98425360753805
          318.98425360753805 318.984253607538 318.98425360753794 318.98425360753794 318.98425360753794 318.98425360753794
          318.984253607538 318.98425360753805 318.9842536075381 317.921735893523 317.921735893523 317.92173589352296
          317.92173589352296 317.921735893523 317.921735893523 317.92173589352296 317.92173589352296 317.92173589352296
          317.92173589352296 317.92173589352296 317.92173589352296 317.921735893523 317.92173589352313 317.92173589352313
          317.92173589352313 317.921735893523 317.9217358935229 317.9217358935229 317.9217358935229 317.9217358935229
          317.92173589352296 317.92173589352296 317.92173589352296 317.92173589352296 317.92173589352296 317.9217358935229
          317.9217358935229 317.9217358935229 317.9217358935229 317.92173589352296 317.921735893523 317.92173589352296
          316.4460475541917 316.4460475541917 316.4460475541917 316.4460475541917 316.4460475541917 316.4460475541917
          316.4460475541917 316.4460475541917 316.4460475541917 316.4460475541917 316.4460475541917 316.4460475541917
          316.44604755419175 316.44604755419175 316.44604755419175 316.44604755419175 316.4460475541917 316.44604755419164
          316.4460475541917 316.4460475541917 316.4460475541917 316.4460475541917 316.4460475541917 316.4460475541917
          316.4460475541917 316.4460475541917 316.4460475541917 316.4460475541917 316.4460475541917 316.4460475541917
          316.4460475541917 316.4460475541917 316.4460475541917 314.5687441725457 314.5687441725457 314.5687441725457
          314.5687441725457 314.56874417254573 314.56874417254573 314.56874417254573 314.56874417254573 314.56874417254573
          314.56874417254573 314.5687441725457 314.56874417254573 314.56874417254573 314.56874417254573 314.56874417254573
          314.56874417254573 314.56874417254573 314.5687441725457 314.56874417254573 314.56874417254573 314.56874417254573
          314.56874417254573 314.5687441725457 314.5687441725457 314.56874417254573 314.56874417254573 314.56874417254573
          314.56874417254573 314.56874417254573 314.56874417254573 314.56874417254573 314.56874417254573 314.5687441725456
          312.3042932272896 312.3042932272896 312.3042932272896 312.3042932272896 312.3042932272896 312.3042932272896
          312.30429322728963 312.30429322728963 312.30429322728963 312.3042932272896 312.3042932272896 312.3042932272896
          312.3042932272896 312.3042932272896 312.3042932272896 312.3042932272896 312.3042932272896 312.3042932272896
          312.3042932272896 312.30429322728963 312.30429322728963 312.3042932272896 312.30429322728963 312.30429322728963
          312.30429322728963 312.3042932272897 312.3042932272897 312.30429322728963 312.30429322728963 312.30429322728963
          312.3042932272897 312.3042932272896 312.3042932272896 309.66980130647 309.66980130647 309.66980130647
          309.66980130647 309.66980130647 309.66980130647 309.66980130647016 309.66980130647016 309.66980130647016
          309.66980130647 309.66980130647 309.66980130647005 309.66980130647 309.66980130647 309.66980130647
          309.66980130647 309.66980130647 309.66980130647 309.66980130647005 309.66980130647005 309.66980130647016
          309.6698013064702 309.66980130647016 309.6698013064701 309.66980130647016 309.6698013064702 309.6698013064702
          309.66980130647016 309.6698013064702 309.6698013064702 309.6698013064702 309.66980130647016 309.66980130647
          306.6847009593043 306.6847009593043 306.6847009593043 306.6847009593043 306.6847009593043 306.68470095930434
          306.68470095930445 306.6847009593045 306.6847009593045 306.6847009593044 306.6847009593044 306.6847009593044
          306.6847009593044 306.6847009593043 306.6847009593044 306.6847009593044 306.6847009593044 306.6847009593044
          306.6847009593044 306.6847009593044 306.6847009593045 306.6847009593046 306.68470095930456 306.68470095930456
          306.6847009593046 306.6847009593046 306.6847009593046 306.6847009593046 306.6847009593046 306.6847009593046
          306.6847009593046 306.6847009593045 306.6847009593043 303.3704075226787 303.3704075226787 303.3704075226787
          303.3704075226787 303.3704075226787 303.37040752267876 303.3704075226789 303.370407522679 303.37040752267893
          303.37040752267893 303.3704075226789 303.3704075226789 303.37040752267893 303.37040752267893 303.37040752267893
          303.3704075226789 303.3704075226789 303.3704075226789 303.3704075226789 303.370407522679 303.370407522679
          303.3704075226791 303.37040752267916 303.3704075226791 303.37040752267905 303.37040752267905 303.37040752267905
          303.37040752267905 303.37040752267905 303.37040752267905 303.37040752267905 303.37040752267893 303.37040752267876
          299.74995669163786 299.74995669163786 299.74995669163786 299.74995669163786 299.74995669163786 299.7499566916379
          299.74995669163803 299.74995669163815 299.74995669163815 299.7499566916381 299.7499566916381 299.7499566916381
          299.74995669163815 299.74995669163815 299.74995669163815 299.7499566916381 299.7499566916381 299.7499566916381
          299.7499566916381 299.7499566916381 299.74995669163815 299.7499566916382 299.74995669163826 299.74995669163826
          299.74995669163815 299.74995669163815 299.74995669163815 299.74995669163815 299.74995669163815 299.7499566916382
          299.74995669163815 299.7499566916381 299.74995669163786 295.84763352394117 295.84763352394117 295.8476335239411
          295.8476335239411 295.8476335239411 295.84763352394117 295.8476335239413 295.8476335239413 295.84763352394134
          295.84763352394134 295.8476335239413 295.8476335239413 295.84763352394134 295.84763352394134 295.84763352394134
          295.84763352394134 295.84763352394134 295.8476335239413 295.8476335239413 295.8476335239413 295.84763352394134
          295.8476335239415 295.8476335239415 295.8476335239415 295.8476335239414 295.8476335239413 295.8476335239413
          295.84763352394134 295.84763352394134 295.84763352394145 295.84763352394134 295.8476335239412 295.8476335239411
          291.68860302561234 291.68860302561234 291.6886030256123 291.6886030256123 291.6886030256123 291.6886030256124
          291.68860302561245 291.68860302561245 291.68860302561234 291.68860302561234 291.68860302561234 291.6886030256123
          291.68860302561234 291.68860302561234 291.68860302561234 291.6886030256124 291.68860302561234 291.68860302561234
          291.6886030256123 291.6886030256123 291.68860302561245 291.6886030256125 291.6886030256125 291.68860302561245
          291.68860302561245 291.68860302561234 291.68860302561234 291.68860302561234 291.68860302561245 291.68860302561257
          291.68860302561245 291.68860302561234 291.6886030256123 287.2985515314626 287.2985515314626 287.2985515314625
          287.2985515314625 287.2985515314625 287.29855153146264 287.29855153146264 287.29855153146264 287.2985515314626
          287.2985515314626 287.2985515314626 287.2985515314625 287.2985515314625 287.2985515314625 287.2985515314625
          287.2985515314626 287.2985515314625 287.2985515314625 287.2985515314625 287.2985515314626 287.2985515314626
          287.29855153146264 287.2985515314627 287.29855153146264 287.2985515314626 287.2985515314626 287.2985515314625
          287.2985515314626 287.2985515314626 287.2985515314627 287.2985515314626 287.2985515314626 287.2985515314626
          282.70334686313424 282.7033468631343 282.70334686313424 282.70334686313424 282.70334686313424 282.70334686313424
          282.70334686313436 282.7033468631343 282.7033468631343 282.70334686313424 282.7033468631343 282.7033468631343
          282.70334686313424 282.7033468631342 282.7033468631342 282.70334686313424 282.70334686313424 282.70334686313424
          282.70334686313424 282.7033468631343 282.7033468631343 282.7033468631343 282.70334686313424 282.70334686313424
          282.7033468631343 282.70334686313424 282.70334686313424 282.70334686313424 282.7033468631343 282.7033468631343
          282.7033468631343 282.70334686313424 282.70334686313424 277.92872381660186 277.9287238166018 277.9287238166018
          277.9287238166018 277.92872381660186 277.92872381660186 277.9287238166018 277.9287238166018 277.9287238166018
          277.9287238166018 277.9287238166018 277.9287238166018 277.9287238166018 277.9287238166018 277.9287238166018
          277.92872381660186 277.9287238166018 277.9287238166018 277.9287238166018 277.9287238166018 277.9287238166018
          277.9287238166018 277.9287238166018 277.9287238166018 277.9287238166018 277.9287238166018 277.9287238166018
          277.9287238166018 277.9287238166018 277.92872381660186 277.9287238166018 277.9287238166018 277.92872381660186
          273 273 273 273 273 273
          273 273 273 273 273 272.99999999999994
          273 273 273 273.00000000000006 273 273
          273 272.99999999999994 273 273 273 273
          273 273 273 273 273 273
          273 273 273
        </DataArray>
        <DataArray type="Float64" Name="von Mises stress" format="ascii" RangeMin="-1.4799560844096536e-8" RangeMax="8.496514991810148e-8">
          0 0 1.5980563390484503e-11 0 -9.588338034290702e-11 2.5849394142282115e-26
          5.593197186669577e-10 2.0679515313825692e-25 -3.2600349316588385e-9 8.271806125530277e-25 1.9000889871286078e-8 3.148250890752442e-8
          1.518473133404006e-8 8.271806125530277e-25 1.5820757754571256e-8 3.148250890752443e-8 1.5820757768630124e-8 -2.481541837659083e-24
          1.5184731263745708e-8 3.148250890752443e-8 1.9000890278993324e-8 -1.370017889540952e-24 -3.2600373076079463e-9 -3.263486010463117e-25
          5.593335666543488e-10 2.8272774843121063e-26 -9.596409231814807e-11 3.130200071916975e-27 1.6450987254539672e-11 2.271919407036514e-28
          -2.7418312090899452e-12 0 0 3.808505404970534e-8 3.712761942510211e-8 3.697547429636564e-8
          3.7462034431062755e-8 3.842071559676025e-8 3.843996703119081e-8 3.610823797208709e-8 3.000128463013587e-8 1.869486321602389e-8
          6.7187845896283095e-9 -1.3971403891737267e-9 -5.083245077140538e-9 -3.769862831030439e-9 -1.3898560841483297e-9 -1.8760872697990984e-9
          1.6250057818932123e-9 1.596698524080456e-8 3.0314666578111206e-8 3.383286526498941e-8 3.340532935750854e-8 3.5915806911738026e-8
          3.737443486865586e-8 3.379135016924006e-8 3.0320907672005345e-8 3.211746223546644e-8 3.672689262750542e-8 4.169507761600436e-8
          3.8020191944786985e-8 1.6700410357677042e-8 1.6738175271801987e-11 1.025018071816853e-8 2.9054899003826586e-8 3.808505404970534e-8
          3.228222825273585e-8 3.248576939139917e-8 3.194404064727725e-8 3.2414676066225614e-8 3.565530969409984e-8 3.220677726055153e-8
          1.2609914495232317e-8 -3.247497365526653e-10 1.621331343050169e-8 3.2897160273702456e-8 2.0399847070356702e-8 1.171203630858615e-10
          -6.55527330548863e-9 2.9546966725057313e-10 2.058215288392083e-8 3.301652000380564e-8 1.6310314686188504e-8 -3.9137164147266256e-10
          1.2056552448280059e-8 3.231356417005933e-8 3.90391407384778e-8 3.243329886742848e-8 1.2696055270804383e-8 -3.9269843635247805e-10
          1.2946929360999924e-8 3.257095994810119e-8 3.8335414610190894e-8 3.2296017295195696e-8 1.6508491951042213e-8 -3.5583706358952743e-12
          -8.21653061820499e-9 -1.2355750572707629e-10 3.228222825273585e-8 1.4322850897966063e-8 2.982065196621201e-8 3.1491079056206806e-8
          2.5895294911063667e-8 1.9594462273895778e-8 1.015688899133547e-8 -4.849117089984931e-9 -7.661920989086322e-9 1.948011227501041e-8
          4.226638960627301e-8 2.6386317908669196e-8 3.387278090321153e-9 4.816651059351039e-9 2.057355603368739e-8 4.055711223125874e-8
          4.577731242834768e-8 1.7244149401236708e-8 -1.1340392404887225e-8 -6.274328544837211e-9 1.297361429336508e-8 2.6934709421697986e-8
          2.6923536928296436e-8 4.2546769012953684e-9 -1.1413650247724385e-8 9.57677589281801e-9 3.452437558535559e-8 3.0727569092321404e-8
          1.5084201066513794e-8 4.492116160731108e-9 -1.9647238677217829e-10 1.8706486622584063e-9 7.706187144834076e-9 1.432285089796606e-8
          -1.9036929875245248e-10 3.3730638908822965e-8 4.239092122868033e-8 3.396650718291485e-8 1.6633426293621735e-8 5.995652665512892e-11
          -6.085624152130841e-9 1.069544072221361e-10 2.054796235467237e-8 3.333623279690624e-8 1.6570598840610116e-8 -9.754712999421029e-11
          1.2983187269315035e-8 3.361601440787975e-8 3.960414665504184e-8 3.323125605756196e-8 1.6781014662200744e-8 3.279877277460155e-10
          -6.0532594870144056e-9 -3.3070210911501675e-12 2.0837265086505144e-8 3.390472180478338e-8 1.663532810275243e-8 3.3238967149557895e-10
          1.62992122020961e-8 3.344799986318571e-8 2.069095682339614e-8 -2.361175829752553e-10 -7.59742402163114e-9 1.1805703818422706e-11
          2.3996339789763363e-8 3.403575565073072e-8 -1.9036929875245292e-10 -2.959234147398084e-9 3.7988346611005225e-8 5.798749322145222e-8
          5.854500896126374e-8 4.1167697107760625e-8 1.858976969155789e-8 3.54543874327051e-9 -1.0251851121851024e-9 7.818008750107465e-9
          1.491627130077796e-8 5.110853510456139e-9 -4.1865679253350434e-9 4.435683688927377e-9 1.564626106702335e-8 1.411381692273282e-8
          1.0219747751431146e-8 1.4345450048493664e-8 1.8513231507038626e-8 1.4745399820184275e-8 1.675636796310436e-8 3.826054891097261e-8
          5.4304166734533745e-8 3.9933445504532426e-8 1.8815373364827268e-8 1.4616938459276853e-8 1.4221418839625948e-8 4.51209255761934e-9
          -6.099317795015018e-9 -9.201089626549177e-9 8.103232315405815e-10 2.9538466947777976e-8 4.045729624663956e-8 -2.959234147398083e-9
          4.811132810138897e-11 3.440310122901975e-8 5.9466377256357555e-8 6.901442920657606e-8 5.682374687613648e-8 3.461125838624378e-8
          1.4093891858102851e-8 1.288813390852964e-10 -2.426539123437271e-9 -1.652022746184889e-10 3.200591403879916e-10 1.795472142080007e-10
          5.635640394673705e-10 -2.5971861375435773e-11 -3.0871419658619434e-9 3.9104693268086866e-11 1.8011819083274897e-8 3.4789647958549996e-8
          3.433123807348489e-8 3.467655288383075e-8 5.386555584533875e-8 6.922033380685783e-8 5.806297361723691e-8 3.47749781370546e-8
          1.3737850226889506e-8 -5.2359497883440715e-11 -1.5996004218893011e-9 2.0057105985900094e-10 -3.547401447651459e-9 -3.9343430424665026e-11
          2.352891962553539e-8 3.445790033884022e-8 4.811132810138899e-11 9.13104601999502e-10 1.7988816035117514e-8 3.2998082302968374e-8
          3.9192318210535704e-8 2.9822938562803076e-8 1.822117548051827e-8 1.771826108442897e-8 1.7341144834919902e-8 6.116776192375748e-9
          -2.2001062778701366e-9 6.1452359895156046e-9 1.823464318503254e-8 2.114995549918024e-8 1.895446228534782e-8 1.5711452896924405e-8
          1.8036365028258876e-8 3.2544636373700144e-8 4.254176527434775e-8 3.133325007130122e-8 2.276135155196166e-8 4.0668330503730166e-8
          6.029684765531981e-8 5.6889563735443727e-8 4.1355709000032286e-8 2.4604513705015907e-8 1.384431947205906e-8 1.6283467922826234e-8
          1.769661203143271e-8 3.8584047719938e-9 -3.180919585344707e-9 1.862887322956298e-8 3.231710677318749e-8 9.13104601999502e-10
          -1.4298156680106779e-11 -2.068946327125237e-10 2.28483855299237e-10 -4.425103112258885e-10 -3.9542247508689515e-9 -1.0150840948605254e-10
          2.1320789767066693e-8 3.55387482856444e-8 1.7778445653102152e-8 7.027705445548944e-12 1.419164027868018e-8 3.552675360973227e-8
          3.920683793552803e-8 3.5380006166713824e-8 3.4194371213936e-8 3.545751706306769e-8 3.897702769998203e-8 3.515085318224543e-8
          1.4376943567424268e-8 -2.6939108670346035e-10 1.4287159277640218e-8 3.496982258722487e-8 3.8701826768820065e-8 3.5196038727281956e-8
          3.416532536746668e-8 3.559517749073495e-8 3.947108589844745e-8 3.556265402595354e-8 1.3639485308602562e-8 1.2118445666846515e-10
          2.1427356180425176e-8 3.5426146601949916e-8 -1.4298156680106805e-11 -5.532509123533936e-10 -7.138032619890252e-9 -1.285149458893323e-8
          -1.3071831960637415e-8 -3.1772398761578995e-9 1.3145238020851012e-8 3.220855808673501e-8 3.829664228262069e-8 1.5693412569634656e-8
          -2.6655727844506903e-9 1.6155244488137074e-8 3.8046377004158376e-8 2.889833738037364e-8 1.332931694227534e-8 1.5957507015355934e-8
          2.3091273146653067e-8 2.1038980883204382e-8 1.2336246758256846e-8 -4.813126949426006e-10 -8.245593184880124e-9 -1.7884904200418834e-9
          8.577415238367603e-9 1.2539543429143826e-8 1.6935374685472182e-8 2.8602389540538067e-8 4.0659310642103695e-8 4.6224860637931284e-8
          4.237858244374816e-8 2.6200018975281642e-8 1.6861651805770227e-8 3.35359625084524e-8 3.9853983972640434e-8 -5.532509123533935e-10
          1.1217974230721547e-11 1.3496567168213358e-10 -2.696467571110841e-9 2.19440145581797e-10 1.758521072149004e-8 3.620900986747024e-8
          4.289900329437876e-8 3.600837827007584e-8 1.3890322062421723e-8 8.71251511910095e-11 1.814107801615831e-8 3.6011044722924765e-8
          2.165588933709152e-8 5.880625717775953e-11 -3.797010118297335e-9 -2.1528151709361094e-10 5.002703330291037e-10 -9.717430706543963e-12
          -1.0460767107790914e-10 1.4266474451991789e-10 6.591649486918437e-10 2.9948563619675514e-11 -3.1599287885147716e-9 -1.3507112469730484e-10
          1.7879917538086278e-8 3.595845383020445e-8 3.9173954382025705e-8 3.589006334159081e-8 3.447042485694053e-8 3.6188833804508615e-8
          4.231908506072876e-8 3.591020449437735e-8 1.1217974230721627e-11 1.2953120240734442e-9 1.919147353697308e-8 2.3990949854026064e-8
          2.539501868903839e-8 3.310495775581603e-8 4.131979259459334e-8 4.42385487456047e-8 4.002684455596337e-8 2.6850298372782586e-8
          1.7911694424082815e-8 2.6413816937884505e-8 4.0096192238702393e-8 4.669834665105118e-8 3.976789036642704e-8 1.2852433576326163e-8
          -8.573720306306952e-9 9.637321314722282e-10 1.8498011655931867e-8 2.1062339033340123e-8 1.8618502932834033e-8 2.1128292023550622e-8
          1.945751510718549e-8 4.471980985434206e-9 -3.7310448249502594e-9 1.494570319278507e-8 3.406230105844471e-8 2.7178824791833175e-8
          1.8268980123963808e-8 3.1306472785849945e-8 4.445621951496717e-8 3.588313704879102e-8 1.7518932260700222e-8 1.2953120240734442e-9
          -2.031084399544068e-11 3.6591292657507876e-8 4.2829091766539736e-8 3.6502209000144236e-8 3.5419766875365465e-8 3.645365811309521e-8
          3.64757754342253e-8 3.642347852699732e-8 3.7234127079652906e-8 3.660157016365435e-8 3.2219656850463976e-8 3.6422941355057616e-8
          6.154597789241109e-8 7.310144403888292e-8 3.660201737083162e-8 9.687689707834403e-11 1.1635201626444226e-8 3.6565231361976335e-8
          4.0235205906721736e-8 3.660364915530089e-8 3.962908500233425e-8 3.6558537431388796e-8 1.4639030426031458e-8 3.113534144778567e-11
          1.889542353282332e-8 3.651746525483887e-8 1.8182830762175245e-8 -1.1721807790697902e-10 1.7608580601852793e-8 3.639186997263078e-8
          2.126429320560324e-8 -9.836272476159146e-11 -2.0310843995440995e-11 -4.693369674056434e-9 4.0383495526065e-8 3.473169500220408e-8
          1.676821180632909e-8 2.4910028990408297e-8 3.5300488364777156e-8 2.4082931739771126e-8 1.4060350577085738e-8 2.8035736338416515e-8
          4.0882630057087384e-8 2.7474572766422243e-8 1.4041646583718747e-8 2.68139336262745e-8 4.143251732647956e-8 3.3538481116723976e-8
          1.978837590709432e-8 1.683875260767716e-8 2.2685179740971798e-8 3.532322582947753e-8 4.3884918615481475e-8 3.7502285841270776e-8
          2.273851749371583e-8 6.156803559687039e-9 1.9507555817091803e-9 2.431398510230705e-8 4.046612696937342e-8 1.762681603080108e-8
          -8.04836472258243e-9 -4.038322999495654e-10 1.4007642460617804e-8 8.633288721037805e-9 -2.3320098725625966e-9 -4.693369674056434e-9
          2.246420862871127e-11 3.676767959623696e-8 2.1501602760475393e-8 -5.834961201557026e-11 1.7805239165404494e-8 3.6791939208506107e-8
          1.8601320633059843e-8 -4.542908541097729e-11 1.757287752861701e-8 3.6765295435133686e-8 2.2840879594128954e-8 -4.5339835541368996e-11
          -7.738332695021474e-9 -1.5445505625453518e-10 2.2789937008816287e-8 3.6844360856001105e-8 1.775833384111006e-8 -8.664791323547824e-11
          1.7690911715585882e-8 3.675091880458073e-8 2.2753279430755652e-8 -8.690737214822633e-11 -7.554542570389767e-9 -9.323391929445638e-12
          2.2189052935272265e-8 3.676723947564991e-8 2.1451889293638076e-8 3.8472910316134805e-11 -3.677539153236505e-9 -4.5195677432631405e-11
          5.864545573149574e-10 1.1108777253121593e-11 2.2464208628711858e-11 2.217855088730906e-8 3.49009265786325e-8 2.6529215967583303e-8
          1.7236834025037176e-8 2.719719572186986e-8 3.714351877024097e-8 2.7809020882310163e-8 1.7645924874885578e-8 2.510645356477535e-8
          3.421043285326095e-8 2.8977688641623827e-8 1.764971540997192e-8 8.468007638413147e-9 9.428709336677024e-9 2.8527964514493077e-8
          4.013469076158061e-8 1.8617805667658933e-8 -4.090127613784101e-9 3.94345407073939e-9 1.678076404340279e-8 8.484015626379498e-9
          -5.29571786910361e-9 -8.907363131819638e-9 -4.010523129462612e-9 7.735199170273438e-9 1.9216967336354916e-8 2.3321944937748218e-8
          2.277815077343475e-8 2.0313603642395923e-8 1.328538305311002e-8 -9.49431485944677e-10 -4.0864916496007875e-9 2.217855088730906e-8
          3.6932309167022574e-8 3.687906344991701e-8 3.690406796655646e-8 3.6937928631112457e-8 3.691125135775658e-8 3.6882792584402256e-8
          3.6911308748962954e-8 3.6934311992303037e-8 3.688931445528682e-8 3.6875343027408065e-8 3.699142459816056e-8 3.693429389266785e-8
          3.64006856360535e-8 3.6930832241993496e-8 4.0064966124163785e-8 3.687761789177495e-8 1.8443318154037604e-8 1.4646090396382805e-11
          -3.155819119704054e-9 -2.7175841627667518e-11 4.4147755926158574e-10 6.176001549336017e-12 4.2295440382121314e-10 -2.389736544590717e-11
          -3.050089437775154e-9 -1.8049798449576564e-11 1.7709793567247785e-8 3.692848969644651e-8 4.443308762627623e-8 3.6903083496182596e-8
          1.1017973445611294e-8 -3.477412944095265e-11 3.6932309167022574e-8 2.217855088730907e-8 4.090785861406881e-8 3.504998402349948e-8
          2.476654342462499e-8 3.02191531264693e-8 3.7103310618748175e-8 3.11145133911774e-8 2.587228932863659e-8 3.499616631600533e-8
          4.315665911360625e-8 3.502428248176199e-8 2.5876079863722932e-8 3.098909470273948e-8 4.0121807128705156e-8 4.303269727151352e-8
          3.627956949203135e-8 1.6420228151125485e-8 -2.0444180795624417e-9 -4.613460528390772e-9 -8.233042131627661e-10 -2.103541516816828e-10
          2.7088866615122646e-9 1.3417915231878858e-8 1.859478633198726e-8 4.917554734406613e-9 -7.0819698397684455e-9 3.1280223305567157e-9
          2.3178744266085848e-8 4.070140898752269e-8 4.7887753818338153e-8 3.692951608200312e-8 2.322651027337446e-8 2.2178550887309065e-8
          2.2464208628719345e-11 3.685240863491699e-8 2.1618692981910425e-8 4.785852138824145e-11 1.7866446525129662e-8 3.679137206407982e-8
          1.8539550209183824e-8 7.060551392962688e-11 1.8344162531805147e-8 3.689148383653087e-8 1.9243832001827298e-8 7.069476379922905e-11
          1.4041559858551491e-8 3.673897260431188e-8 4.374547831930818e-8 3.678998356036381e-8 1.7601394884302185e-8 -5.779275036185733e-11
          -2.425084385113449e-9 4.2114656191951206e-11 -3.113600950301118e-9 2.599925687506796e-11 2.137914573918823e-8 3.6770024314634655e-8
          2.2022820801210606e-8 -6.420762602302956e-11 -6.692803792005365e-9 4.412336571226969e-11 1.805366490957855e-8 3.6903373099930683e-8
          4.616080019710587e-8 3.6856859475279956e-8 2.246420862871959e-11 -4.693369674056429e-9 1.810218644163665e-8 3.793296164298559e-9
          -1.0013916778622607e-8 1.4286671340321255e-8 3.541933018406021e-8 1.2108329415524338e-8 -1.478085685072953e-8 -4.38275450014457e-9
          9.91375240440837e-9 -5.2802201999415546e-9 -1.4799560844096536e-8 1.6520841941041245e-8 5.093200769650253e-8 5.068495596331808e-8
          3.570965358802382e-8 2.593606741715574e-8 1.6638748016422334e-8 3.092245951532134e-9 -8.828187348849702e-9 -1.3247300456058013e-8
          -5.4472419283843165e-9 1.9289839675879876e-8 3.9881868805882376e-8 3.5246769910771006e-8 1.79789706055654e-8 6.728985052852173e-10
          -9.232384820301333e-9 -4.297817801426026e-9 7.4258008636970455e-9 1.7887672476853777e-8 1.7157910982713006e-8 -4.6933696740564295e-9
          -2.0310843995440808e-11 5.142054449994406e-11 -3.6203371164728493e-9 -1.62720883215123e-10 2.1297132187971826e-8 3.645696019906919e-8
          2.1014501252058135e-8 -2.986640059775828e-10 -2.750954927954239e-9 -1.7969086859246006e-10 -6.422191182612906e-9 -2.9920117791732077e-10
          3.936853383759253e-8 7.285513351691404e-8 6.043471751304464e-8 3.646003200408453e-8 3.528382316813396e-8 3.639722789728144e-8
          1.929138308361551e-8 -2.7152820151902366e-10 -6.529322886777347e-9 -1.4539311459875844e-10 1.821686897257747e-8 3.649558681752083e-8
          4.262888386300082e-8 3.6402906261586566e-8 1.760380016584718e-8 -1.5011673413053953e-10 -3.2405267482598014e-9 -2.2204285360288294e-10
          3.507219727779245e-10 -6.708358529403673e-11 -2.0310843995440995e-11 1.2953120240734435e-9 -2.7398332757881797e-9 8.24546808721407e-9
          2.4016418085838103e-8 3.4338218692841845e-8 4.089478728576589e-8 4.5370041242150876e-8 4.601197706279711e-8 4.106859124850492e-8
          3.59626129058326e-8 3.6116771141338394e-8 4.6081324745536084e-8 7.040653250893948e-8 8.496514991810148e-8 6.562993245957499e-8
          4.055925630279557e-8 3.791149761719885e-8 4.457817785022372e-8 4.745081844930911e-8 4.4175631894371914e-8 3.239883066532903e-8
          2.309861683621865e-8 2.7253192481078974e-8 3.694584958268952e-8 4.4259880123829807e-8 4.422539080975446e-8 3.187248834571815e-8
          2.2503304626270417e-8 3.14199715459608e-8 4.109289289776459e-8 3.399247247465707e-8 1.8074636706729584e-8 1.2953120240734433e-9
          1.1217974230721701e-11 8.033122644666299e-12 1.803300870961295e-8 3.6107365301215995e-8 3.625232346353424e-8 3.619270561907393e-8
          5.365333419034132e-8 7.217879432936812e-8 7.531367118818606e-8 7.19468197923739e-8 7.096709516751044e-8 7.218146078221697e-8
          7.539688010511488e-8 7.23791476731682e-8 5.4894058023341085e-8 3.618157932431234e-8 2.948167974476077e-8 3.621718722660287e-8
          5.781092971175514e-8 7.215666337945503e-8 5.714814440894e-8 3.6110441840170004e-8 3.2368624713105063e-8 3.6071046308734676e-8
          3.736605990804832e-8 3.621468224396311e-8 3.2577930049396215e-8 3.605250243833212e-8 5.623509852475534e-8 7.213427268343259e-8
          6.275857928913063e-8 3.6065175375009867e-8 1.1217974230721627e-11 -5.532509123533937e-10 -2.2220367246951836e-9 7.65742692237117e-9
          1.7664417951677696e-8 1.6378214286056415e-8 1.4675021466805461e-8 2.3431045035222966e-8 3.8160905743168635e-8 5.437922434250215e-8
          6.230041243756643e-8 5.2138881632704356e-8 3.791064046470626e-8 3.363169747036254e-8 3.160002111527692e-8 2.4113579865053178e-8
          1.5696318760183267e-8 1.0872182841159114e-8 1.389407935960845e-8 2.9014915567159025e-8 3.9610358722784004e-8 2.9056076085456595e-8
          1.6878889731831926e-8 2.2605621738565163e-8 3.006946510666386e-8 2.3103612837135518e-8 1.3985985192208292e-8 1.499450243411032e-8
          2.2770731719923894e-8 3.3956240206731295e-8 4.046702217144161e-8 3.421907189096392e-8 1.921233298859874e-8 -5.532509123533937e-10
          -1.4298156680106968e-11 -1.423973863374373e-10 -1.9729493069235122e-10 -7.69335939178881e-12 5.977047579173093e-10 -2.8201030261847694e-11
          -3.532511175426071e-9 1.0712364273147678e-10 2.0913052744517648e-8 3.560220041238388e-8 2.0891490928781654e-8 9.512896681933882e-11
          -3.4726808003947028e-9 9.207919510167499e-11 6.934265212706271e-10 2.0185517961129278e-11 -2.3881947497785534e-10 -2.8537674370961813e-11
          7.060817029571901e-10 1.6124334965477184e-10 -3.4668480416300275e-9 -5.749003987926723e-11 2.0510019785925005e-8 3.508708483327357e-8
          2.0525108499657183e-8 -2.7634717287845093e-11 -3.4228703199252266e-9 2.3599096759025605e-10 8.455384211038235e-10 1.718598091522188e-10
          -1.8957099727803487e-11 7.514607362005327e-12 -1.4298156680106979e-11 9.131046019995034e-10 1.5312896204021758e-8 1.6494447164222356e-8
          1.2760066002718141e-8 1.241206123962597e-8 1.2760564857648569e-8 1.1115708839488653e-8 1.2299720378728365e-8 2.1134826668949853e-8
          2.7695944710992852e-8 2.2057991505697094e-8 1.3193218728841008e-8 1.0073878056202996e-8 9.696017847998208e-9 9.05568646444178e-9
          9.163181887332995e-9 1.1028802098471128e-8 1.2324240746608632e-8 1.0721191480497965e-8 8.45921235842949e-9 7.777861438693573e-9
          1.6620595360779348e-8 4.2930870764175953e-8 6.021747839697656e-8 4.1989209007274395e-8 1.2300539407762161e-8 -4.7940535888674595e-9
          -9.638185586494513e-9 -2.575472188999046e-9 8.047050768472197e-9 1.3882347450772475e-8 1.2360878510936631e-8 9.131046019995035e-10
          4.811132810138916e-11 3.430271082458116e-8 4.020355771664113e-8 3.433842906187179e-8 3.3295101917863626e-8 3.430161770319091e-8
          3.458601783642787e-8 3.450754287647823e-8 3.4425433382245695e-8 3.440074316677191e-8 3.4494526043098565e-8 3.4558208751600946e-8
          3.444321803265435e-8 3.4270055593425045e-8 3.4159223141079336e-8 3.4097796548170825e-8 3.4072851687253144e-8 3.4265745426715186e-8
          3.4857834634945863e-8 3.429437265379429e-8 3.1020612825109576e-8 3.4560985926410475e-8 5.443992273521575e-8 6.942463532540944e-8
          5.828233577087561e-8 3.426545227501775e-8 1.0626413041239281e-8 -3.5496935833324777e-10 1.3601117648426688e-8 3.428013579730353e-8
          4.3467546824081706e-8 3.433349168295105e-8 4.8111328101389214e-11 -2.959234147398089e-9 4.365360290669075e-8 4.898181196794631e-8
          3.932034432722937e-8 4.0964151275400766e-8 4.20468425988207e-8 3.07020280838494e-8 2.235518438657313e-8 3.243178816307819e-8
          4.163451398988679e-8 3.066603644352117e-8 1.9193801573423196e-8 2.6885255429034705e-8 4.235784900470002e-8 5.4229033294763465e-8
          5.889920218994684e-8 5.2768749580972e-8 4.441494782071191e-8 4.2415069262039607e-8 3.9739150357313686e-8 2.9357227558892805e-8
          2.1254463263452077e-8 2.5416019867666653e-8 3.4985001131155404e-8 4.310451081353718e-8 4.4420985617320924e-8 3.3580862245015566e-8
          2.4051617574409368e-8 2.930072848329054e-8 4.052096120308807e-8 4.890508196523089e-8 3.942203532873137e-8 -2.959234147398089e-9
          -1.9036929875245563e-10 3.408232305528325e-8 3.9205203171184744e-8 3.375004495558616e-8 3.628862231512157e-8 3.3937023495304745e-8
          1.3811336741649427e-8 2.367058012031206e-10 1.7538274421013375e-8 3.405290668807687e-8 1.8117466689390278e-8 3.22042639867779e-11
          1.0097369250899531e-8 3.391618921507459e-8 5.7091891721458024e-8 6.738680139293128e-8 5.256324285237582e-8 3.4093415187667895e-8
          3.344951748668376e-8 3.3719594113560175e-8 1.799168943243391e-8 2.2066925299563176e-10 -5.638600615063955e-9 2.3519637633580633e-10
          1.766337677527555e-8 3.409350315310652e-8 3.697313808117993e-8 3.386036359396855e-8 3.231326172594509e-8 3.376753689791745e-8
          3.965889353069356e-8 3.375152650492104e-8 -1.9036929875245558e-10 1.4322850897966073e-8 6.931205046440959e-9 1.759043940747315e-8
          2.9497693472248948e-8 2.5850106731954658e-8 1.5231272121440655e-8 6.22478257555732e-9 1.333430801345396e-9 3.0600095058456485e-9
          7.420756873599512e-9 1.0431911089148418e-8 1.2382629880752854e-8 1.3562070976673292e-8 2.085072561714715e-8 4.112908504241184e-8
          5.14899407296262e-8 2.9026084155949037e-8 6.7466080281249505e-9 1.7660605052898562e-8 3.176834454537428e-8 1.9070095820656482e-8
          1.6003135683851468e-9 1.3934524782002492e-9 7.2405197469532945e-9 7.932522571495775e-9 6.745144093407988e-9 6.954067454270214e-9
          1.0625089443497175e-8 1.982400685050357e-8 2.9206589806431028e-8 3.342860844242116e-8 2.947303729431812e-8 1.4322850897966071e-8
          3.2282228252735855e-8 -1.3759344017852663e-10 1.3360939736056916e-8 3.2479920192738706e-8 1.6921440341163372e-8 1.9871395254568204e-10
          1.5824954798100413e-8 3.186099057353429e-8 1.636764897455406e-8 -1.28727019430424e-10 1.2898205570990695e-8 3.23028606731728e-8
          3.493965221447124e-8 3.213732997539081e-8 3.5224643736436294e-8 3.285685655277826e-8 1.3689231479587266e-8 -1.409367324357155e-10
          1.3503646667410303e-8 3.257681698723812e-8 3.5032409535160505e-8 3.1865824167796875e-8 3.4072460741766634e-8 3.215395801784213e-8
          1.661195475679571e-8 -1.409632461987709e-10 -5.692210195967461e-9 -7.069238610779304e-11 1.6694683889782802e-8 3.247464792647542e-8
          3.5139929018741196e-8 3.2479473637266036e-8 3.2282228252735855e-8 3.8085054049705313e-8 2.9120922460906435e-8 3.5741324426383025e-8
          3.7155133397758927e-8 1.257122282665804e-8 -9.34728084005176e-10 3.3712959868683773e-8 6.854020711034865e-8 5.557293406661313e-8
          2.9079215814887426e-8 2.3327127432581634e-8 3.345567740307223e-8 5.460387420973572e-8 6.724033764308955e-8 5.1833687493651155e-8
          3.084974309168392e-8 2.6754323767451197e-8 2.9136648931674116e-8 2.758593799507385e-8 3.2167017712764184e-8 5.2944714839858926e-8
          6.851747042655744e-8 5.748372552305912e-8 3.8688422808472094e-8 3.0976504961904565e-8 2.9136773649433603e-8 2.795803053713628e-8
          2.8806227426721107e-8 3.30473161198966e-8 3.717993354530526e-8 3.7702716631589593e-8 3.715723394447961e-8 3.8085054049705313e-8
          0 0 1.5980563390484503e-11 0 -9.588338034290702e-11 2.5849394142282115e-26
          5.593197186669577e-10 2.0679515313825692e-25 -3.2600349316588385e-9 8.271806125530277e-25 1.9000889871286078e-8 3.148250890752442e-8
          1.518473133404006e-8 8.271806125530277e-25 1.5820757754571256e-8 3.148250890752443e-8 1.5820757768630124e-8 -2.481541837659083e-24
          1.5184731263745708e-8 3.148250890752443e-8 1.9000890278993324e-8 -1.370017889540952e-24 -3.2600373076079463e-9 -3.263486010463117e-25
          5.593335666543488e-10 2.8272774843121063e-26 -9.596409231814807e-11 3.130200071916975e-27 1.6450987254539672e-11 2.271919407036514e-28
          -2.7418312090899452e-12 0 0
        </DataArray>
      </PointData>
      <CellData>
      </CellData>
      <Points>
        <DataArray type="Float64" Name="Points" NumberOfComponents="3" format="ascii" RangeMin="0.029999999999999933" RangeMax="0.04000000000000004">
          0.03 0 0 0.0303125 0 0
          0.030625 0 0 0.0309375 0 0
          0.03125 0 0 0.0315625 0 0
          0.031875 0 0 0.0321875 0 0
          0.0325 0 0 0.0328125 0 0
          0.033125 0 0 0.0334375 0 0
          0.03375 0 0 0.0340625 0 0
          0.034375 0 0 0.0346875 0 0
          0.035 0 0 0.0353125 0 0
          0.035625 0 0 0.0359375 0 0
          0.03625 0 0 0.0365625 0 0
          0.036875 0 0 0.0371875 0 0
          0.0375 0 0 0.0378125 0 0
          0.038125 0 0 0.0384375 0 0
          0.03875 0 0 0.0390625 0 0
          0.039375 0 0 0.0396875 0 0
          0.04 0 0 0.029970174201170083 0.0013374073244597354 0
          0.03028236351576558 0.001351338650756192 0 0.03059455283036111 0.001365269977052648 0
          0.03090674214495664 0.0013792013033491037 0 0.031218931459552162 0.001393132629645559 0
          0.03153112077414768 0.0014070639559420146 0 0.031843310088743186 0.0014209952822384702 0
          0.03215549940333871 0.0014349266085349254 0 0.03246768871793424 0.001448857934831381 0
          0.032779878032529776 0.0014627892611278365 0 0.033092067347125304 0.001476720587424292 0
          0.03340425666172081 0.0014906519137207479 0 0.033716445976316324 0.0015045832400172028 0
          0.03402863529091185 0.0015185145663136582 0 0.034340824605507386 0.0015324458926101138 0
          0.03465301392010292 0.0015463772189065691 0 0.03496520323469845 0.0015603085452030245 0
          0.03527739254929396 0.0015742398714994805 0 0.03558958186388947 0.001588171197795937 0
          0.03590177117848498 0.0016021025240923938 0 0.036213960493080524 0.0016160338503888498 0
          0.03652614980767605 0.0016299651766853054 0 0.036838339122271566 0.001643896502981761 0
          0.03715052843686707 0.0016578278292782168 0 0.03746271775146261 0.0016717591555746722 0
          0.03777490706605814 0.0016856904818711277 0 0.03808709638065366 0.0016996218081675833 0
          0.03839928569524918 0.0017135531344640387 0 0.0387114750098447 0.001727484460760495 0
          0.03902366432444021 0.0017414157870569503 0 0.03933585363903572 0.0017553471133534059 0
          0.03964804295363124 0.0017692784396498619 0 0.03996023226822677 0.0017832097659463183 0
          0.029878647258386324 0.002695633136931134 0 0.03018988316732784 0.0027237126487741695 0
          0.03050111907626937 0.002751792160617203 0 0.0308123549852109 0.0027798716724602352 0
          0.031123590894152425 0.0028079511843032675 0 0.03143482680309395 0.0028360306961463 0
          0.03174606271203547 0.0028641102079893332 0 0.032057298620977 0.0028921897198323655 0
          0.03236853452991853 0.002920269231675398 0 0.03267977043886006 0.0029483487435184304 0
          0.032991006347801596 0.0029764282553614626 0 0.03330224225674313 0.0030045077672044957 0
          0.03361347816568465 0.003032587279047528 0 0.03392471407462617 0.003060666790890561 0
          0.034235949983567694 0.0030887463027335933 0 0.03454718589250924 0.0031168258145766255 0
          0.03485842180145077 0.0031449053264196577 0 0.03516965771039228 0.003172984838262691 0
          0.035480893619333806 0.0032010643501057257 0 0.03579212952827533 0.00322914386194876 0
          0.03610336543721687 0.003257223373791794 0 0.03641460134615839 0.0032853028856348267 0
          0.0367258372550999 0.0033133823974778594 0 0.0370370731640414 0.003341461909320892 0
          0.03734830907298293 0.003369541421163924 0 0.037659544981924455 0.003397620933006957 0
          0.03797078089086599 0.0034257004448499883 0 0.03828201679980751 0.003453779956693021 0
          0.03859325270874903 0.003481859468536054 0 0.038904488617690546 0.0035099389803790867 0
          0.03921572452663207 0.0035380184922221194 0 0.0395269604355736 0.0035660980040651525 0
          0.03983819634451513 0.0035941775159081877 0 0.02972251814004727 0.004070861753309568 0
          0.030032127704006102 0.004113266563239878 0 0.03034173726796492 0.004155671373170187 0
          0.030651346831923745 0.004198076183100494 0 0.030960956395882575 0.004240480993030801 0
          0.031270565959841415 0.00428288580296111 0 0.031580175523800234 0.004325290612891419 0
          0.031889785087759054 0.004367695422821727 0 0.03219939465171789 0.004410100232752036 0
          0.03250900421567673 0.004452505042682344 0 0.03281861377963557 0.004494909852612651 0
          0.03312822334359441 0.004537314662542959 0 0.03343783290755323 0.0045797194724732666 0
          0.03374744247151205 0.004622124282403576 0 0.03405705203547088 0.004664529092333885 0
          0.034366661599429714 0.004706933902264191 0 0.03467627116338853 0.004749338712194498 0
          0.03498588072734736 0.004791743522124807 0 0.03529549029130619 0.004834148332055116 0
          0.03560509985526502 0.004876553141985426 0 0.035914709419223846 0.004918957951915735 0
          0.036224318983182666 0.004961362761846045 0 0.036533928547141485 0.005003767571776352 0
          0.0368435381111003 0.00504617238170666 0 0.0371531476750591 0.005088577191636966 0
          0.03746275723901793 0.005130982001567274 0 0.03777236680297676 0.005173386811497582 0
          0.038081976366935597 0.005215791621427889 0 0.03839158593089442 0.005258196431358199 0
          0.03870119549485324 0.005300601241288508 0 0.03901080505881207 0.005343006051218815 0
          0.03932041462277091 0.0053854108611491236 0 0.03963002418672975 0.005427815671079435 0
          0.0294991610524972 0.005458891572364333 0 0.029806443980127384 0.00551575502624313 0
          0.030113726907757554 0.0055726184801219245 0 0.030421009835387727 0.005629481934000719 0
          0.030728292763017914 0.005686345387879513 0 0.031035575690648104 0.0057432088417583085 0
          0.03134285861827827 0.005800072295637107 0 0.03165014154590844 0.005856935749515903 0
          0.03195742447353864 0.005913799203394698 0 0.03226470740116884 0.005970662657273493 0
          0.03257199032879904 0.006027526111152287 0 0.032879273256429226 0.006084389565031083 0
          0.0331865561840594 0.006141253018909879 0 0.033493839111689565 0.006198116472788677 0
          0.03380112203931976 0.006254979926667473 0 0.03410840496694994 0.0063118433805462665 0
          0.03441568789458011 0.0063687068344250595 0 0.03472297082221027 0.006425570288303855 0
          0.03503025374984046 0.00648243374218265 0 0.035337536677470645 0.006539297196061445 0
          0.035644819605100825 0.006596160649940244 0 0.03595210253273099 0.006653024103819041 0
          0.03625938546036118 0.006709887557697836 0 0.03656666838799136 0.006766751011576631 0
          0.03687395131562152 0.006823614465455424 0 0.0371812342432517 0.0068804779193342176 0
          0.03748851717088189 0.006937341373213014 0 0.03779580009851208 0.006994204827091808 0
          0.03810308302614225 0.007051068280970605 0 0.03841036595377242 0.007107931734849403 0
          0.03871764888140261 0.007164795188728198 0 0.039024931809032805 0.007221658642606992 0
          0.039332214736662985 0.007278522096485786 0 0.029206281031282335 0.0068551548721933735 0
          0.02951051312535818 0.006926562735445388 0 0.02981474521943403 0.006997970598697402 0
          0.030118977313509886 0.007069378461949416 0 0.030423209407585753 0.007140786325201431 0
          0.030727441501661623 0.0072121941884534455 0 0.03103167359573748 0.007283602051705462 0
          0.031335905689813336 0.007355009914957479 0 0.03164013778388921 0.007426417778209495 0
          0.031944369877965076 0.0074978256414615085 0 0.032248601972040956 0.007569233504713523 0
          0.03255283406611682 0.0076406413679655375 0 0.03285706616019267 0.007712049231217552 0
          0.03316129825426853 0.007783457094469569 0 0.033465530348344395 0.007854864957721584 0
          0.033769762442420255 0.007926272820973598 0 0.03407399453649609 0.007997680684225612 0
          0.034378226630571926 0.008069088547477626 0 0.03468245872464778 0.00814049641072964 0
          0.03498669081872365 0.008211904273981654 0 0.0352909229127995 0.00828331213723367 0
          0.03559515500687535 0.008354720000485686 0 0.035899387100951224 0.008426127863737701 0
          0.036203619195027084 0.008497535726989714 0 0.03650785128910294 0.008568943590241728 0
          0.0368120833831788 0.008640351453493742 0 0.03711631547725466 0.008711759316745756 0
          0.03742054757133053 0.008783167179997772 0 0.03772477966540639 0.008854575043249787 0
          0.03802901175948224 0.008925982906501803 0 0.038333243853558095 0.008997390769753817 0
          0.03863747594763396 0.009068798633005828 0 0.038941708041709794 0.009140206496257835 0
          0.028841968745610926 0.008254746445361071 0 0.029142405920044356 0.008340733387500247 0
          0.0294428430944778 0.008426720329639427 0 0.029743280268911258 0.00851270727177861 0
          0.030043717443344713 0.008598694213917788 0 0.030344154617778167 0.008684681156056966 0
          0.030644591792211625 0.008770668098196148 0 0.030945028966645076 0.008856655040335327 0
          0.03124546614107854 0.008942641982474507 0 0.03154590331551199 0.009028628924613685 0
          0.031846340489945446 0.009114615866752863 0 0.0321467776643789 0.009200602808892042 0
          0.03244721483881235 0.009286589751031218 0 0.0327476520132458 0.009372576693170397 0
          0.03304808918767926 0.009458563635309577 0 0.0333485263621127 0.009544550577448756 0
          0.03364896353654612 0.009630537519587933 0 0.033949400710979544 0.009716524461727112 0
          0.03424983788541298 0.009802511403866287 0 0.03455027505984644 0.009888498346005466 0
          0.034850712234279886 0.009974485288144645 0 0.035151149408713334 0.010060472230283824 0
          0.035451586583146795 0.010146459172423003 0 0.03575202375758024 0.01023244611456218 0
          0.03605246093201369 0.010318433056701357 0 0.03635289810644714 0.010404419998840536 0
          0.0366533352808806 0.010490406940979713 0 0.036953772455314046 0.01057639388311889 0
          0.0372542096297475 0.01066238082525807 0 0.03755464680418094 0.010748367767397248 0
          0.037855083978614396 0.010834354709536425 0 0.038155521153047836 0.010920341651675599 0
          0.038455958327481235 0.011006328593814764 0 0.028404752965250298 0.009652461291458359 0
          0.02870063580863831 0.009753007763244387 0 0.028996518652026352 0.00985355423503042 0
          0.029292401495414396 0.009954100706816453 0 0.02958828433880243 0.010054647178602483 0
          0.02988416718219046 0.010155193650388509 0 0.03018005002557849 0.010255740122174535 0
          0.030475932868966518 0.010356286593960557 0 0.030771815712354548 0.010456833065746582 0
          0.031067698555742575 0.010557379537532609 0 0.031363581399130605 0.010657926009318633 0
          0.031659464242518635 0.010758472481104658 0 0.03195534708590666 0.010859018952890681 0
          0.03225122992929469 0.010959565424676708 0 0.03254711277268271 0.011060111896462733 0
          0.032842995616070736 0.011160658368248757 0 0.03313887845945874 0.011261204840034783 0
          0.03343476130284675 0.011361751311820809 0 0.033730644146234764 0.01146229778360683 0
          0.0340265269896228 0.011562844255392855 0 0.034322409833010825 0.011663390727178882 0
          0.03461829267639885 0.011763937198964906 0 0.03491417551978688 0.011864483670750929 0
          0.0352100583631749 0.011965030142536952 0 0.03550594120656293 0.012065576614322976 0
          0.03580182404995096 0.012166123086109001 0 0.036097706893338986 0.012266669557895026 0
          0.03639358973672702 0.012367216029681051 0 0.03668947258011505 0.012467762501467076 0
          0.03698535542350307 0.012568308973253102 0 0.037281238266891094 0.012668855445039125 0
          0.03757712111027911 0.012769401916825147 0 0.037873003953667106 0.012869948388611161 0
          0.02789364903187285 0.011042841286856165 0 0.028184207875954867 0.01115787088359426 0
          0.02847476672003691 0.011272900480332363 0 0.028765325564118947 0.011387930077070462 0
          0.02905588440820097 0.011502959673808552 0 0.02934644325228298 0.011617989270546638 0
          0.029637002096364985 0.011733018867284718 0 0.02992756094044699 0.011848048464022796 0
          0.030218119784528995 0.011963078060760881 0 0.030508678628611008 0.012078107657498966 0
          0.030799237472693024 0.012193137254237053 0 0.031089796316775033 0.012308166850975138 0
          0.03138035516085705 0.012423196447713225 0 0.03167091400493906 0.01253822604445131 0
          0.031961472849021066 0.012653255641189395 0 0.032252031693103075 0.012768285237927482 0
          0.03254259053718508 0.012883314834665567 0 0.03283314938126708 0.012998344431403654 0
          0.03312370822534909 0.013113374028141741 0 0.033414267069431104 0.013228403624879825 0
          0.03370482591351311 0.013343433221617912 0 0.03399538475759512 0.013458462818355995 0
          0.03428594360167713 0.013573492415094075 0 0.03457650244575913 0.013688522011832153 0
          0.034867061289841135 0.013803551608570237 0 0.03515762013392315 0.013918581205308322 0
          0.03544817897800516 0.014033610802046409 0 0.035738737822087176 0.014148640398784494 0
          0.036029296666169185 0.01426366999552258 0 0.036319855510251194 0.014378699592260664 0
          0.0366104143543332 0.014493729188998753 0 0.03690097319841522 0.014608758785736838 0
          0.03719153204249721 0.014723788382474927 0 0.02730820163270254 0.012420230416045359 0
          0.027592662066376554 0.012549607816212524 0 0.027877122500050575 0.012678985216379684 0
          0.028161582933724578 0.012808362616546835 0 0.028446043367398574 0.012937740016713982 0
          0.02873050380107256 0.013067117416881118 0 0.02901496423474653 0.013196494817048238 0
          0.029299424668420494 0.01332587221721536 0 0.029583885102094473 0.013455249617382497 0
          0.029868345535768462 0.013584627017549639 0 0.03015280596944245 0.013714004417716781 0
          0.030437266403116444 0.013843381817883922 0 0.03072172683679043 0.013972759218051066 0
          0.03100618727046442 0.014102136618218209 0 0.031290647704138405 0.01423151401838535 0
          0.0315751081378124 0.01436089141855249 0 0.03185956857148638 0.014490268818719634 0
          0.03214402900516037 0.014619646218886779 0 0.032428489438834356 0.014749023619053921 0
          0.03271294987250835 0.014878401019221063 0 0.032997410306182334 0.015007778419388204 0
          0.03328187073985632 0.01513715581955534 0 0.033566331173530285 0.015266533219722465 0
          0.03385079160720425 0.015395910619889586 0 0.034135252040878236 0.01552528802005672 0
          0.03441971247455223 0.01565466542022386 0 0.034704172908226215 0.015784042820391003 0
          0.03498863334190021 0.01591342022055815 0 0.03527309377557419 0.016042797620725288 0
          0.03555755420924818 0.01617217502089243 0 0.035842014642922165 0.01630155242105957 0
          0.03612647507659615 0.01643092982122672 0 0.036410935510270165 0.016560307221393882 0
          0.026648520204892535 0.013778837791680067 0 0.02692610895702687 0.013922367352010105 0
          0.027203697709161187 0.01406589691234012 0 0.027481286461295492 0.014209426472670122 0
          0.0277588752134298 0.014352956033000134 0 0.028036463965564095 0.014496485593330133 0
          0.028314052717698365 0.014640015153660106 0 0.02859164146983264 0.01478354471399008 0
          0.028869230221966934 0.014927074274320079 0 0.029146818974101235 0.015070603834650087 0
          0.02942440772623554 0.01521413339498009 0 0.02970199647836984 0.015357662955310094 0
          0.02997958523050414 0.0155011925156401 0 0.030257173982638445 0.01564472207597011 0
          0.030534762734772746 0.01578825163630011 0 0.030812351486907044 0.015931781196630114 0
          0.031089940239041353 0.01607531075696012 0 0.031367528991175654 0.016218840317290133 0
          0.03164511774330995 0.01636236987762014 0 0.03192270649544426 0.01650589943795015 0
          0.03220029524757856 0.016649428998280154 0 0.03247788399971286 0.016792958558610148 0
          0.03275547275184712 0.016936488118940125 0 0.033033061503981394 0.017080017679270105 0
          0.03331065025611569 0.0172235472396001 0 0.03358823900825 0.0173670767999301 0
          0.033865827760384305 0.017510606360260108 0 0.03414341651251861 0.017654135920590116 0
          0.03442100526465291 0.01779766548092012 0 0.03469859401678721 0.01794119504125012 0
          0.03497618276892151 0.018084724601580126 0 0.03525377152105583 0.018228254161910144 0
          0.03553136027319014 0.01837178372224017 0 0.025915305412422908 0.015112807329574507 0
          0.026185256510469018 0.015270232405924273 0 0.026455207608515097 0.01542765748227401 0
          0.026725158706561166 0.015585082558623743 0 0.02699510980460725 0.015742507634973486 0
          0.027265060902653324 0.015899932711323225 0 0.027535012000699372 0.016057357787672935 0
          0.027804963098745417 0.016214782864022646 0 0.028074914196791496 0.016372207940372387 0
          0.028344865294837575 0.01652963301672213 0 0.028614816392883647 0.01668705809307186 0
          0.028884767490929716 0.01684448316942159 0 0.0291547185889758 0.017001908245771337 0
          0.029424669687021877 0.017159333322121082 0 0.029694620785067946 0.017316758398470813 0
          0.029964571883114015 0.01747418347482054 0 0.030234522981160097 0.017631608551170286 0
          0.03050447407920618 0.01778903362752004 0 0.03077442517725225 0.01794645870386979 0
          0.031044376275298317 0.018103883780219536 0 0.0313143273733444 0.018261308856569267 0
          0.031584278471390476 0.01841873393291899 0 0.031854229569436524 0.018576159009268716 0
          0.03212418066748257 0.01873358408561844 0 0.03239413176552864 0.018891009161968165 0
          0.03266408286357474 0.0190484342383179 0 0.032934033961620826 0.019205859314667638 0
          0.0332039850596669 0.019363284391017383 0 0.03347393615771298 0.019520709467367114 0
          0.03374388725575904 0.019678134543716842 0 0.03401383835380513 0.019835559620066587 0
          0.034283789451851204 0.019992984696416333 0 0.03455374054989727 0.020150409772766067 0
          0.02510986533655952 0.016416292601554253 0 0.025371426433815365 0.01658729564948713 0
          0.02563298753107119 0.01675829869741998 0 0.02589454862832701 0.016929301745352832 0
          0.02615610972558285 0.0171003047932857 0 0.02641767082283869 0.017271307841218567 0
          0.026679231920094505 0.017442310889151408 0 0.02694079301735031 0.01761331393708425 0
          0.027202354114606156 0.017784316985017118 0 0.02746391521186199 0.017955320032949987 0
          0.02772547630911781 0.018126323080882828 0 0.02798703740637362 0.01829732612881567 0
          0.028248598503629457 0.018468329176748535 0 0.0285101596008853 0.018639332224681407 0
          0.02877172069814112 0.018810335272614255 0 0.029033281795396944 0.0189813383205471 0
          0.02929484289265278 0.01915234136847997 0 0.029556403989908622 0.01932334441641285 0
          0.02981796508716444 0.019494347464345727 0 0.030079526184420266 0.0196653505122786 0
          0.030341087281676102 0.019836353560211448 0 0.030602648378931945 0.020007356608144296 0
          0.030864209476187756 0.020178359656077154 0 0.03112577057344357 0.02034936270401002 0
          0.03138733167069941 0.020520365751942868 0 0.03164889276795525 0.020691368799875712 0
          0.0319104538652111 0.020862371847808574 0 0.03217201496246694 0.021033374895741433 0
          0.03243357605972275 0.02120437794367428 0 0.03269513715697857 0.021375380991607133 0
          0.03295669825423441 0.02154638403954 0 0.03321825935149025 0.02171738708747286 0
          0.03347982044874604 0.02188839013540569 0 0.024234120303270358 0.017683535085684033 0
          0.024486559056429436 0.01786773857615992 0 0.024738997809588496 0.01805194206663579 0
          0.024991436562747563 0.018236145557111665 0 0.02524387531590664 0.018420349047587548 0
          0.025496314069065718 0.018604552538063434 0 0.025748752822224778 0.01878875602853931 0
          0.026001191575383838 0.018972959519015176 0 0.02625363032854291 0.019157163009491062 0
          0.026506069081701986 0.019341366499966945 0 0.02675850783486103 0.01952556999044279 0
          0.027010946588020064 0.01970977348091864 0 0.02726338534117914 0.019893976971394525 0
          0.027515824094338216 0.020078180461870408 0 0.027768262847497276 0.020262383952346277 0
          0.028020701600656343 0.020446587442822153 0 0.028273140353815417 0.02063079093329804 0
          0.028525579106974494 0.020814994423773926 0 0.028778017860133558 0.020999197914249826 0
          0.02903045661329262 0.021183401404725712 0 0.029282895366451695 0.02136760489520158 0
          0.029535334119610773 0.021551808385677457 0 0.029787772872769833 0.021736011876153337 0
          0.030040211625928893 0.021920215366629223 0 0.030292650379087974 0.022104418857105096 0
          0.03054508913224705 0.022288622347580965 0 0.03079752788540611 0.022472825838056824 0
          0.03104996663856517 0.022657029328532693 0 0.03130240539172423 0.022841232819008555 0
          0.031554844144883284 0.023025436309484427 0 0.03180728289804237 0.023209639799960314 0
          0.03205972165120143 0.023393843290436193 0 0.03231216040436048 0.023578046780912045 0
          0.023290595627245284 0.0189089437919769 0 0.023533205998362432 0.01910591195647667 0
          0.02377581636947957 0.01930288012097643 0 0.02401842674059671 0.01949984828547619 0
          0.02426103711171386 0.019696816449975958 0 0.024503647482831 0.01989378461447573 0
          0.024746257853948142 0.020090752778975488 0 0.024988868225065283 0.020287720943475248 0
          0.025231478596182425 0.020484689107975018 0 0.025474088967299566 0.020681657272474775 0
          0.025716699338416676 0.020878625436974503 0 0.025959309709533786 0.021075593601474242 0
          0.026201920080650924 0.021272561765973995 0 0.02644453045176807 0.02146952993047376 0
          0.026687140822885213 0.021666498094973525 0 0.02692975119400235 0.021863466259473285 0
          0.0271723615651195 0.022060434423973055 0 0.027414971936236644 0.02225740258847282 0
          0.02765758230735378 0.022454370752972592 0 0.027900192678470926 0.022651338917472362 0
          0.02814280304958807 0.02284830708197212 0 0.02838541342070522 0.023045275246471885 0
          0.028628023791822353 0.023242243410971645 0 0.028870634162939498 0.023439211575471415 0
          0.029113244534056646 0.023636179739971182 0 0.029355854905173777 0.02383314790447093 0
          0.0295984652762909 0.024030116068970663 0 0.029841075647408018 0.024227084233470406 0
          0.03008368601852515 0.024424052397970155 0 0.030326296389642286 0.02462102056246992 0
          0.030568906760759434 0.02481798872696969 0 0.030811517131876576 0.025014956891469448 0
          0.03105412750299371 0.025211925055969208 0 0.02228240196677268 0.020087174081765802 0
          0.022514510320593234 0.02029641547845087 0 0.02274661867441379 0.020505656875135933 0
          0.022978727028234336 0.020714898271820992 0 0.023210835382054887 0.020924139668506057 0
          0.02344294373587544 0.021133381065191123 0 0.023675052089695996 0.02134262246187619 0
          0.023907160443516543 0.02155186385856125 0 0.0241392687973371 0.021761105255246316 0
          0.02437137715115765 0.02197034665193137 0 0.024603485504978175 0.022179588048616413 0
          0.024835593858798705 0.022388829445301458 0 0.025067702212619253 0.022598070841986517 0
          0.025299810566439804 0.022807312238671575 0 0.025531918920260355 0.02301655363535664 0
          0.02576402727408091 0.023225795032041703 0 0.025996135627901464 0.023435036428726772 0
          0.026228243981722014 0.023644277825411834 0 0.02646035233554257 0.0238535192220969 0
          0.02669246068936312 0.024062760618781966 0 0.02692456904318367 0.024272002015467024 0
          0.02715667739700422 0.024481243412152087 0 0.027388785750824773 0.024690484808837156 0
          0.027620894104645327 0.024899726205522218 0 0.027853002458465878 0.025108967602207283 0
          0.02808511081228643 0.02531820899889234 0 0.02831721916610696 0.025527450395577383 0
          0.02854932751992749 0.02573669179226243 0 0.028781435873748033 0.025945933188947484 0
          0.029013544227568588 0.026155174585632546 0 0.029245652581389135 0.026364415982317608 0
          0.02947776093520969 0.02657365737900267 0 0.029709869289030237 0.026782898775687736 0
          0.021213203435596413 0.021213203435596413 0 0.021434174304717214 0.021434174304717214 0
          0.02165514517383801 0.02165514517383801 0 0.021876116042958804 0.021876116042958804 0
          0.022097086912079605 0.022097086912079605 0 0.022318057781200402 0.022318057781200402 0
          0.022539028650321202 0.022539028650321202 0 0.022759999519442006 0.022759999519442 0
          0.0229809703885628 0.0229809703885628 0 0.023201941257683593 0.023201941257683593 0
          0.023422912126804377 0.023422912126804377 0 0.02364388299592516 0.02364388299592516 0
          0.023864853865045953 0.023864853865045953 0 0.024085824734166754 0.024085824734166754 0
          0.024306795603287547 0.02430679560328755 0 0.02452776647240835 0.02452776647240835 0
          0.02474873734152915 0.02474873734152915 0 0.02496970821064995 0.02496970821064995 0
          0.025190679079770746 0.025190679079770743 0 0.025411649948891547 0.025411649948891547 0
          0.02563262081801234 0.02563262081801234 0 0.02585359168713314 0.02585359168713314 0
          0.026074562556253938 0.026074562556253938 0 0.02629553342537474 0.02629553342537474 0
          0.026516504294495535 0.026516504294495535 0 0.026737475163616332 0.026737475163616336 0
          0.026958446032737123 0.026958446032737123 0 0.027179416901857913 0.027179416901857913 0
          0.0274003877709787 0.027400387770978703 0 0.02762135864009949 0.027621358640099493 0
          0.02784232950922029 0.02784232950922029 0 0.028063300378341084 0.028063300378341084 0
          0.02828427124746188 0.02828427124746188 0 0.02008717408176581 0.022282401966772683 0
          0.020296415478450874 0.022514510320593237 0 0.020505656875135933 0.022746618674413792 0
          0.020714898271821 0.02297872702823434 0 0.02092413966850606 0.023210835382054894 0
          0.021133381065191126 0.023442943735875445 0 0.02134262246187619 0.023675052089696 0
          0.021551863858561254 0.023907160443516547 0 0.021761105255246316 0.0241392687973371 0
          0.02197034665193137 0.024371377151157645 0 0.022179588048616417 0.024603485504978175 0
          0.022388829445301458 0.024835593858798705 0 0.022598070841986513 0.025067702212619253 0
          0.022807312238671575 0.025299810566439807 0 0.023016553635356644 0.025531918920260358 0
          0.02322579503204171 0.025764027274080913 0 0.023435036428726776 0.02599613562790146 0
          0.023644277825411834 0.026228243981722014 0 0.023853519222096903 0.02646035233554257 0
          0.02406276061878197 0.02669246068936312 0 0.02427200201546703 0.026924569043183674 0
          0.02448124341215209 0.027156677397004222 0 0.02469048480883716 0.027388785750824776 0
          0.02489972620552222 0.02762089410464533 0 0.02510896760220729 0.02785300245846588 0
          0.025318208998892346 0.028085110812286436 0 0.025527450395577418 0.02831721916610699 0
          0.02573669179226247 0.028549327519927534 0 0.025945933188947515 0.028781435873748068 0
          0.02615517458563256 0.029013544227568595 0 0.02636441598231761 0.029245652581389135 0
          0.026573657379002674 0.02947776093520969 0 0.026782898775687736 0.029709869289030244 0
          0.0189089437919769 0.02329059562724528 0 0.019105911956476672 0.02353320599836243 0
          0.019302880120976428 0.023775816369479563 0 0.01949984828547619 0.024018426740596708 0
          0.019696816449975955 0.024261037111713856 0 0.019893784614475725 0.024503647482831 0
          0.020090752778975488 0.02474625785394814 0 0.020287720943475245 0.024988868225065283 0
          0.020484689107975015 0.025231478596182428 0 0.02068165727247477 0.025474088967299562 0
          0.020878625436974503 0.025716699338416672 0 0.02107559360147424 0.025959309709533786 0
          0.021272561765974 0.02620192008065092 0 0.02146952993047376 0.026444530451768068 0
          0.021666498094973532 0.02668714082288521 0 0.0218634662594733 0.026929751194002347 0
          0.022060434423973062 0.027172361565119495 0 0.022257402588472818 0.02741497193623664 0
          0.02245437075297259 0.027657582307353778 0 0.02265133891747236 0.027900192678470923 0
          0.022848307081972115 0.028142803049588067 0 0.023045275246471878 0.028385413420705215 0
          0.02324224341097165 0.028628023791822353 0 0.02343921157547141 0.028870634162939494 0
          0.023636179739971175 0.02911324453405664 0 0.023833147904470935 0.02935585490517379 0
          0.024030116068970705 0.029598465276290932 0 0.024227084233470465 0.029841075647408073 0
          0.024424052397970193 0.030083686018525183 0 0.024621020562469925 0.030326296389642297 0
          0.024817988726969685 0.03056890676075943 0 0.025014956891469445 0.030811517131876576 0
          0.025211925055969208 0.03105412750299371 0 0.017683535085684033 0.024234120303270358 0
          0.01786773857615992 0.024486559056429436 0 0.018051942066635792 0.0247389978095885 0
          0.018236145557111665 0.02499143656274756 0 0.018420349047587548 0.02524387531590664 0
          0.018604552538063434 0.02549631406906571 0 0.018788756028539303 0.025748752822224778 0
          0.018972959519015172 0.026001191575383838 0 0.019157163009491062 0.02625363032854291 0
          0.01934136649996694 0.026506069081701986 0 0.01952556999044279 0.02675850783486103 0
          0.019709773480918645 0.027010946588020068 0 0.01989397697139452 0.027263385341179138 0
          0.02007818046187041 0.027515824094338216 0 0.02026238395234631 0.027768262847497276 0
          0.020446587442822194 0.028020701600656343 0 0.020630790933298063 0.028273140353815417 0
          0.02081499442377394 0.028525579106974494 0 0.020999197914249822 0.028778017860133558 0
          0.021183401404725712 0.02903045661329262 0 0.02136760489520158 0.0292828953664517 0
          0.021551808385677454 0.029535334119610773 0 0.021736011876153337 0.02978777287276984 0
          0.021920215366629223 0.030040211625928893 0 0.022104418857105096 0.03029265037908797 0
          0.02228862234758097 0.030545089132247055 0 0.02247282583805685 0.03079752788540614 0
          0.022657029328532734 0.031049966638565213 0 0.022841232819008583 0.031302405391724256 0
          0.023025436309484434 0.0315548441448833 0 0.023209639799960314 0.03180728289804236 0
          0.023393843290436193 0.03205972165120143 0 0.02357804678091204 0.032312160404360475 0
          0.016416292601554253 0.02510986533655952 0 0.01658729564948713 0.025371426433815365 0
          0.01675829869741998 0.02563298753107119 0 0.016929301745352832 0.02589454862832701 0
          0.017100304793285698 0.026156109725582844 0 0.017271307841218567 0.02641767082283868 0
          0.017442310889151408 0.0266792319200945 0 0.01761331393708425 0.02694079301735031 0
          0.017784316985017118 0.027202354114606152 0 0.017955320032949983 0.02746391521186199 0
          0.018126323080882824 0.027725476309117807 0 0.01829732612881567 0.027987037406373625 0
          0.018468329176748535 0.028248598503629457 0 0.018639332224681414 0.0285101596008853 0
          0.018810335272614293 0.028771720698141125 0 0.018981338320547162 0.029033281795396937 0
          0.01915234136848001 0.02929484289265278 0 0.019323344416412862 0.029556403989908622 0
          0.019494347464345727 0.02981796508716444 0 0.0196653505122786 0.030079526184420263 0
          0.019836353560211448 0.030341087281676105 0 0.020007356608144296 0.030602648378931945 0
          0.020178359656077154 0.03086420947618776 0 0.02034936270401002 0.03112577057344357 0
          0.020520365751942868 0.03138733167069941 0 0.020691368799875716 0.03164889276795526 0
          0.020862371847808585 0.03191045386521111 0 0.02103337489574145 0.032172014962466945 0
          0.02120437794367429 0.03243357605972276 0 0.021375380991607136 0.032695137156978575 0
          0.02154638403954 0.03295669825423441 0 0.021717387087472863 0.03321825935149025 0
          0.021888390135405694 0.03347982044874604 0 0.015112807329574509 0.025915305412422915 0
          0.015270232405924277 0.026185256510469018 0 0.015427657482274015 0.0264552076085151 0
          0.015585082558623745 0.026725158706561156 0 0.01574250763497349 0.026995109804607217 0
          0.015899932711323228 0.027265060902653286 0 0.01605735778767294 0.02753501200069934 0
          0.01621478286402265 0.027804963098745413 0 0.016372207940372387 0.0280749141967915 0
          0.016529633016722133 0.02834486529483758 0 0.016687058093071864 0.02861481639288365 0
          0.016844483169421595 0.02888476749092972 0 0.017001908245771337 0.0291547185889758 0
          0.01715933332212109 0.029424669687021877 0 0.017316758398470845 0.02969462078506795 0
          0.017474183474820583 0.029964571883114015 0 0.017631608551170314 0.0302345229811601 0
          0.01778903362752005 0.030504474079206187 0 0.017946458703869794 0.030774425177252252 0
          0.01810388378021954 0.03104437627529832 0 0.018261308856569267 0.0313143273733444 0
          0.018418733932918995 0.03158427847139048 0 0.018576159009268716 0.031854229569436524 0
          0.01873358408561844 0.03212418066748258 0 0.01889100916196817 0.03239413176552865 0
          0.019048434238317896 0.03266408286357474 0 0.019205859314667645 0.032934033961620826 0
          0.019363284391017387 0.03320398505966691 0 0.01952070946736712 0.03347393615771298 0
          0.019678134543716842 0.033743887255759046 0 0.01983555962006659 0.034013838353805136 0
          0.019992984696416336 0.03428378945185121 0 0.020150409772766067 0.03455374054989727 0
          0.013778837791680064 0.026648520204892535 0 0.013922367352010103 0.026926108957026865 0
          0.01406589691234012 0.027203697709161177 0 0.014209426472670126 0.027481286461295468 0
          0.014352956033000134 0.027758875213429745 0 0.014496485593330131 0.028036463965564022 0
          0.014640015153660108 0.028314052717698313 0 0.014783544713990083 0.02859164146983261 0
          0.01492707427432008 0.028869230221966927 0 0.015070603834650087 0.02914681897410123 0
          0.01521413339498009 0.029424407726235537 0 0.015357662955310094 0.029701996478369838 0
          0.0155011925156401 0.02997958523050414 0 0.015644722075970112 0.030257173982638445 0
          0.01578825163630012 0.030534762734772746 0 0.015931781196630128 0.030812351486907044 0
          0.01607531075696013 0.031089940239041353 0 0.016218840317290133 0.031367528991175654 0
          0.01636236987762014 0.03164511774330995 0 0.01650589943795015 0.03192270649544426 0
          0.016649428998280154 0.03220029524757856 0 0.016792958558610148 0.03247788399971286 0
          0.01693648811894013 0.032755472751847134 0 0.017080017679270112 0.0330330615039814 0
          0.017223547239600102 0.0333106502561157 0 0.017367076799930107 0.03358823900825001 0
          0.017510606360260115 0.03386582776038431 0 0.017654135920590123 0.03414341651251862 0
          0.017797665480920124 0.034421005264652915 0 0.01794119504125012 0.03469859401678721 0
          0.018084724601580133 0.034976182768921525 0 0.018228254161910144 0.03525377152105583 0
          0.01837178372224017 0.03553136027319014 0 0.01242023041604536 0.02730820163270254 0
          0.012549607816212527 0.02759266206637655 0 0.012678985216379685 0.027877122500050543 0
          0.012808362616546836 0.028161582933724526 0 0.012937740016713982 0.028446043367398494 0
          0.013067117416881118 0.028730503801072466 0 0.013196494817048243 0.029014964234746452 0
          0.013325872217215365 0.02929942466842045 0 0.013455249617382498 0.029583885102094455 0
          0.013584627017549639 0.029868345535768455 0 0.013714004417716781 0.030152805969442455 0
          0.013843381817883922 0.030437266403116444 0 0.013972759218051066 0.03072172683679043 0
          0.014102136618218209 0.03100618727046442 0 0.01423151401838535 0.031290647704138405 0
          0.014360891418552494 0.0315751081378124 0 0.014490268818719636 0.03185956857148638 0
          0.014619646218886777 0.03214402900516037 0 0.01474902361905392 0.032428489438834356 0
          0.014878401019221063 0.03271294987250835 0 0.015007778419388208 0.03299741030618234 0
          0.015137155819555347 0.033281870739856334 0 0.01526653321972247 0.033566331173530306 0
          0.015395910619889592 0.033850791607204264 0 0.015525288020056729 0.03413525204087825 0
          0.015654665420223868 0.03441971247455224 0 0.01578404282039101 0.03470417290822623 0
          0.015913420220558156 0.03498863334190022 0 0.0160427976207253 0.03527309377557421 0
          0.016172175020892438 0.03555755420924819 0 0.01630155242105958 0.035842014642922186 0
          0.016430929821226726 0.03612647507659617 0 0.016560307221393882 0.03641093551027016 0
          0.011042841286856163 0.027893649031872848 0 0.01115787088359426 0.028184207875954857 0
          0.011272900480332361 0.02847476672003687 0 0.011387930077070462 0.028765325564118874 0
          0.01150295967380855 0.029055884408200887 0 0.01161798927054664 0.029346443252282892 0
          0.011733018867284721 0.029637002096364908 0 0.011848048464022803 0.029927560940446934 0
          0.011963078060760884 0.03021811978452897 0 0.012078107657498966 0.030508678628611004 0
          0.012193137254237051 0.030799237472693024 0 0.012308166850975138 0.031089796316775036 0
          0.012423196447713225 0.03138035516085705 0 0.01253822604445131 0.03167091400493906 0
          0.012653255641189394 0.031961472849021066 0 0.01276828523792748 0.032252031693103075 0
          0.012883314834665567 0.032542590537185084 0 0.012998344431403654 0.032833149381267086 0
          0.013113374028141741 0.03312370822534909 0 0.013228403624879828 0.03341426706943111 0
          0.013343433221617918 0.03370482591351313 0 0.013458462818356005 0.03399538475759515 0
          0.013573492415094085 0.03428594360167715 0 0.013688522011832164 0.034576502445759154 0
          0.013803551608570247 0.03486706128984117 0 0.013918581205308332 0.03515762013392318 0
          0.014033610802046417 0.03544817897800519 0 0.014148640398784504 0.035738737822087197 0
          0.014263669995522593 0.03602929666616921 0 0.014378699592260678 0.03631985551025122 0
          0.014493729188998761 0.03661041435433323 0 0.014608758785736847 0.03690097319841523 0
          0.014723788382474927 0.03719153204249721 0 0.009652461291458359 0.028404752965250298 0
          0.009753007763244387 0.028700635808638304 0 0.00985355423503042 0.028996518652026324 0
          0.009954100706816453 0.02929240149541435 0 0.010054647178602483 0.029588284338802378 0
          0.010155193650388509 0.029884167182190412 0 0.010255740122174535 0.030180050025578446 0
          0.010356286593960562 0.030475932868966486 0 0.010456833065746586 0.030771815712354534 0
          0.010557379537532609 0.03106769855574257 0 0.010657926009318633 0.03136358139913061 0
          0.010758472481104658 0.031659464242518635 0 0.010859018952890683 0.03195534708590666 0
          0.010959565424676708 0.03225122992929469 0 0.011060111896462731 0.03254711277268271 0
          0.011160658368248757 0.032842995616070736 0 0.011261204840034783 0.03313887845945874 0
          0.011361751311820809 0.03343476130284675 0 0.011462297783606834 0.03373064414623477 0
          0.011562844255392859 0.0340265269896228 0 0.011663390727178886 0.03432240983301083 0
          0.011763937198964914 0.03461829267639887 0 0.011864483670750938 0.0349141755197869 0
          0.011965030142536961 0.03521005836317492 0 0.012065576614322985 0.03550594120656295 0
          0.01216612308610901 0.03580182404995098 0 0.012266669557895031 0.036097706893339 0
          0.01236721602968106 0.03639358973672704 0 0.012467762501467083 0.03668947258011507 0
          0.012568308973253109 0.03698535542350309 0 0.01266885544503913 0.037281238266891115 0
          0.012769401916825152 0.03757712111027912 0 0.012869948388611163 0.037873003953667106 0
          0.008254746445361071 0.028841968745610926 0 0.008340733387500248 0.029142405920044356 0
          0.008426720329639427 0.029442843094477786 0 0.00851270727177861 0.02974328026891124 0
          0.00859869421391779 0.030043717443344695 0 0.008684681156056969 0.030344154617778153 0
          0.008770668098196151 0.03064459179221161 0 0.00885665504033533 0.030945028966645072 0
          0.008942641982474507 0.031245466141078534 0 0.009028628924613685 0.03154590331551199 0
          0.009114615866752863 0.031846340489945446 0 0.00920060280889204 0.0321467776643789 0
          0.009286589751031218 0.032447214838812355 0 0.009372576693170398 0.0327476520132458 0
          0.009458563635309577 0.03304808918767926 0 0.009544550577448756 0.0333485263621127 0
          0.009630537519587933 0.03364896353654612 0 0.009716524461727112 0.033949400710979544 0
          0.009802511403866291 0.034249837885412984 0 0.00988849834600547 0.03455027505984644 0
          0.00997448528814465 0.034850712234279886 0 0.010060472230283828 0.03515114940871334 0
          0.010146459172423005 0.0354515865831468 0 0.010232446114562184 0.03575202375758025 0
          0.010318433056701357 0.03605246093201369 0 0.010404419998840534 0.036352898106447144 0
          0.010490406940979715 0.0366533352808806 0 0.010576393883118894 0.03695377245531405 0
          0.010662380825258071 0.0372542096297475 0 0.010748367767397252 0.037554646804180955 0
          0.010834354709536429 0.037855083978614396 0 0.010920341651675602 0.03815552115304784 0
          0.011006328593814764 0.038455958327481235 0 0.0068551548721933735 0.029206281031282335 0
          0.006926562735445388 0.029510513125358184 0 0.006997970598697402 0.02981474521943403 0
          0.007069378461949417 0.030118977313509886 0 0.007140786325201433 0.03042320940758575 0
          0.00721219418845345 0.03072744150166162 0 0.007283602051705466 0.031031673595737486 0
          0.007355009914957482 0.03133590568981335 0 0.007426417778209497 0.031640137783889216 0
          0.007497825641461509 0.03194436987796508 0 0.007569233504713523 0.03224860197204095 0
          0.0076406413679655375 0.032552834066116816 0 0.007712049231217552 0.03285706616019267 0
          0.00778345709446957 0.03316129825426853 0 0.007854864957721584 0.033465530348344395 0
          0.0079262728209736 0.033769762442420255 0 0.007997680684225612 0.03407399453649609 0
          0.008069088547477628 0.034378226630571926 0 0.008140496410729642 0.03468245872464778 0
          0.008211904273981658 0.03498669081872365 0 0.008283312137233675 0.03529092291279951 0
          0.00835472000048569 0.03559515500687538 0 0.008426127863737705 0.035899387100951245 0
          0.008497535726989719 0.036203619195027105 0 0.00856894359024173 0.03650785128910295 0
          0.008640351453493742 0.03681208338317879 0 0.00871175931674576 0.037116315477254656 0
          0.008783167179997777 0.03742054757133053 0 0.008854575043249793 0.03772477966540639 0
          0.008925982906501805 0.03802901175948225 0 0.008997390769753819 0.03833324385355811 0
          0.00906879863300583 0.03863747594763396 0 0.009140206496257835 0.0389417080417098 0
          0.005458891572364334 0.0294991610524972 0 0.005515755026243129 0.02980644398012738 0
          0.005572618480121924 0.030113726907757554 0 0.00562948193400072 0.030421009835387723 0
          0.0056863453878795165 0.030728292763017914 0 0.005743208841758315 0.031035575690648104 0
          0.005800072295637112 0.031342858618278284 0 0.005856935749515907 0.03165014154590847 0
          0.0059137992033947 0.03195742447353865 0 0.005970662657273495 0.032264707401168845 0
          0.006027526111152289 0.03257199032879904 0 0.006084389565031085 0.032879273256429226 0
          0.006141253018909881 0.0331865561840594 0 0.006198116472788679 0.033493839111689565 0
          0.0062549799266674744 0.03380112203931976 0 0.006311843380546268 0.03410840496694994 0
          0.006368706834425062 0.03441568789458011 0 0.006425570288303858 0.03472297082221027 0
          0.006482433742182652 0.03503025374984046 0 0.006539297196061448 0.035337536677470645 0
          0.006596160649940247 0.03564481960510082 0 0.006653024103819045 0.035952102532731 0
          0.0067098875576978405 0.03625938546036119 0 0.006766751011576633 0.03656666838799137 0
          0.0068236144654554255 0.03687395131562153 0 0.006880477919334219 0.0371812342432517 0
          0.0069373413732130166 0.03748851717088189 0 0.006994204827091814 0.03779580009851208 0
          0.007051068280970611 0.03810308302614226 0 0.0071079317348494075 0.03841036595377244 0
          0.0071647951887282004 0.03871764888140262 0 0.007221658642606993 0.0390249318090328 0
          0.007278522096485786 0.03933221473666298 0 0.004070861753309572 0.029722518140047265 0
          0.004113266563239879 0.030032127704006095 0 0.004155671373170186 0.030341737267964915 0
          0.004198076183100494 0.03065134683192374 0 0.004240480993030804 0.030960956395882575 0
          0.0042828858029611136 0.031270565959841415 0 0.0043252906128914215 0.031580175523800234 0
          0.00436769542282173 0.03188978508775906 0 0.004410100232752039 0.032199394651717894 0
          0.004452505042682347 0.032509004215676734 0 0.004494909852612655 0.03281861377963557 0
          0.004537314662542962 0.0331282233435944 0 0.004579719472473272 0.03343783290755322 0
          0.0046221242824035814 0.03374744247151204 0 0.00466452909233389 0.034057052035470874 0
          0.0047069339022641965 0.03436666159942971 0 0.0047493387121945035 0.03467627116338853 0
          0.004791743522124811 0.03498588072734735 0 0.0048341483320551186 0.03529549029130618 0
          0.0048765531419854265 0.03560509985526501 0 0.004918957951915737 0.03591470941922382 0
          0.004961362761846048 0.03622431898318264 0 0.0050037675717763555 0.03653392854714147 0
          0.005046172381706662 0.0368435381111003 0 0.005088577191636967 0.03715314767505912 0
          0.005130982001567275 0.03746275723901793 0 0.005173386811497584 0.03777236680297676 0
          0.005215791621427895 0.038081976366935597 0 0.005258196431358204 0.03839158593089443 0
          0.005300601241288514 0.03870119549485325 0 0.005343006051218822 0.039010805058812076 0
          0.005385410861149128 0.039320414622770916 0 0.005427815671079435 0.03963002418672975 0
          0.0026956331369311416 0.029878647258386324 0 0.0027237126487741725 0.03018988316732784 0
          0.0027517921606172043 0.03050111907626937 0 0.002779871672460237 0.0308123549852109 0
          0.002807951184303269 0.031123590894152425 0 0.0028360306961463027 0.03143482680309395 0
          0.0028641102079893354 0.03174606271203548 0 0.002892189719832368 0.032057298620977 0
          0.002920269231675403 0.03236853452991854 0 0.0029483487435184373 0.03267977043886007 0
          0.00297642825536147 0.032991006347801596 0 0.0030045077672045026 0.03330224225674312 0
          0.003032587279047536 0.03361347816568465 0 0.0030606667908905693 0.033924714074626175 0
          0.003088746302733602 0.034235949983567694 0 0.003116825814576634 0.03454718589250924 0
          0.0031449053264196664 0.03485842180145077 0 0.0031729848382626986 0.03516965771039229 0
          0.003201064350105731 0.035480893619333806 0 0.003229143861948764 0.035792129528275325 0
          0.003257223373791797 0.03610336543721684 0 0.0032853028856348297 0.03641460134615835 0
          0.003313382397477862 0.03672583725509987 0 0.0033414619093208946 0.037037073164041395 0
          0.0033695414211639273 0.03734830907298292 0 0.003397620933006959 0.037659544981924434 0
          0.0034257004448499918 0.03797078089086597 0 0.0034537799566930257 0.03828201679980751 0
          0.003481859468536061 0.03859325270874904 0 0.0035099389803790954 0.03890448861769055 0
          0.0035380184922221285 0.03921572452663208 0 0.00356609800406516 0.0395269604355736 0
          0.0035941775159081908 0.03983819634451514 0 0.0013374073244597417 0.02997017420117008 0
          0.0013513386507561966 0.03028236351576558 0 0.0013652699770526516 0.03059455283036111 0
          0.0013792013033491074 0.03090674214495664 0 0.001393132629645563 0.031218931459552162 0
          0.0014070639559420185 0.03153112077414768 0 0.001420995282238474 0.031843310088743186 0
          0.00143492660853493 0.032155499403338714 0 0.0014488579348313861 0.03246768871793424 0
          0.0014627892611278426 0.03277987803252978 0 0.0014767205874242984 0.033092067347125304 0
          0.0014906519137207544 0.03340425666172082 0 0.001504583240017211 0.03371644597631633 0
          0.0015185145663136669 0.03402863529091185 0 0.0015324458926101229 0.03434082460550738 0
          0.0015463772189065787 0.03465301392010292 0 0.0015603085452030342 0.03496520323469845 0
          0.0015742398714994898 0.035277392549293955 0 0.0015881711977959452 0.03558958186388946 0
          0.0016021025240924012 0.03590177117848498 0 0.0016160338503888568 0.03621396049308051 0
          0.0016299651766853126 0.036526149807676045 0 0.0016438965029817682 0.03683833912227156 0
          0.0016578278292782237 0.03715052843686707 0 0.0016717591555746793 0.03746271775146257 0
          0.0016856904818711347 0.0377749070660581 0 0.0016996218081675903 0.038087096380653634 0
          0.0017135531344640465 0.038399285695249176 0 0.0017274844607605032 0.0387114750098447 0
          0.0017414157870569598 0.03902366432444021 0 0.0017553471133534154 0.03933585363903572 0
          0.0017692784396498708 0.03964804295363124 0 0.0017832097659463255 0.03996023226822677 0
          4.9065389333868e-18 0.03 0 4.98320360422097e-18 0.0303125 0
          5.05986827505514e-18 0.030625 0 5.1365329458893084e-18 0.0309375 0
          5.2131976167234755e-18 0.03125 0 5.289862287557642e-18 0.0315625 0
          5.36652695839181e-18 0.031875 0 5.44319162922598e-18 0.0321875 0
          5.51985630006015e-18 0.0325 0 5.59652097089432e-18 0.0328125 0
          5.67318564172849e-18 0.033125 0 5.749850312562659e-18 0.0334375 0
          5.8265149833968254e-18 0.03375 0 5.903179654230992e-18 0.0340625 0
          5.97984432506516e-18 0.034375 0 6.05650899589933e-18 0.034687499999999996 0
          6.1331736667335e-18 0.035 0 6.2098383375676705e-18 0.0353125 0
          6.28650300840184e-18 0.035625 0 6.363167679236008e-18 0.0359375 0
          6.4398323500701754e-18 0.03625 0 6.516497020904342e-18 0.0365625 0
          6.59316169173851e-18 0.036875 0 6.66982636257268e-18 0.0371875 0
          6.7464910334068496e-18 0.0375 0 6.82315570424102e-18 0.0378125 0
          6.89982037507519e-18 0.038125 0 6.976485045909359e-18 0.0384375 0
          7.053149716743525e-18 0.03875 0 7.129814387577692e-18 0.0390625 0
          7.206479058411861e-18 0.039375 0 7.28314372924603e-18 0.0396875 0
          7.3598084000802e-18 0.04 0
          <InformationKey name="L2_NORM_RANGE" location="vtkDataArray" length="2">
            <Value index="0">
              0.03
            </Value>
            <Value index="1">
              0.04
            </Value>
          </InformationKey>
        </DataArray>
      </Points>
      <Cells>
        <DataArray type="Int64" Name="connectivity" format="ascii" RangeMin="0" RangeMax="1088">
          0 33 34 1 1 34
          35 2 2 35 36 3
          3 36 37 4 4 37
          38 5 5 38 39 6
          6 39 40 7 7 40
          41 8 8 41 42 9
          9 42 43 10 10 43
          44 11 11 44 45 12
          12 45 46 13 13 46
          47 14 14 47 48 15
          15 48 49 16 16 49
          50 17 17 50 51 18
          18 51 52 19 19 52
          53 20 20 53 54 21
          21 54 55 22 22 55
          56 23 23 56 57 24
          24 57 58 25 25 58
          59 26 26 59 60 27
          27 60 61 28 28 61
          62 29 29 62 63 30
          30 63 64 31 31 64
          65 32 33 66 67 34
          34 67 68 35 35 68
          69 36 36 69 70 37
          37 70 71 38 38 71
          72 39 39 72 73 40
          40 73 74 41 41 74
          75 42 42 75 76 43
          43 76 77 44 44 77
          78 45 45 78 79 46
          46 79 80 47 47 80
          81 48 48 81 82 49
          49 82 83 50 50 83
          84 51 51 84 85 52
          52 85 86 53 53 86
          87 54 54 87 88 55
          55 88 89 56 56 89
          90 57 57 90 91 58
          58 91 92 59 59 92
          93 60 60 93 94 61
          61 94 95 62 62 95
          96 63 63 96 97 64
          64 97 98 65 66 99
          100 67 67 100 101 68
          68 101 102 69 69 102
          103 70 70 103 104 71
          71 104 105 72 72 105
          106 73 73 106 107 74
          74 107 108 75 75 108
          109 76 76 109 110 77
          77 110 111 78 78 111
          112 79 79 112 113 80
          80 113 114 81 81 114
          115 82 82 115 116 83
          83 116 117 84 84 117
          118 85 85 118 119 86
          86 119 120 87 87 120
          121 88 88 121 122 89
          89 122 123 90 90 123
          124 91 91 124 125 92
          92 125 126 93 93 126
          127 94 94 127 128 95
          95 128 129 96 96 129
          130 97 97 130 131 98
          99 132 133 100 100 133
          134 101 101 134 135 102
          102 135 136 103 103 136
          137 104 104 137 138 105
          105 138 139 106 106 139
          140 107 107 140 141 108
          108 141 142 109 109 142
          143 110 110 143 144 111
          111 144 145 112 112 145
          146 113 113 146 147 114
          114 147 148 115 115 148
          149 116 116 149 150 117
          117 150 151 118 118 151
          152 119 119 152 153 120
          120 153 154 121 121 154
          155 122 122 155 156 123
          123 156 157 124 124 157
          158 125 125 158 159 126
          126 159 160 127 127 160
          161 128 128 161 162 129
          129 162 163 130 130 163
          164 131 132 165 166 133
          133 166 167 134 134 167
          168 135 135 168 169 136
          136 169 170 137 137 170
          171 138 138 171 172 139
          139 172 173 140 140 173
          174 141 141 174 175 142
          142 175 176 143 143 176
          177 144 144 177 178 145
          145 178 179 146 146 179
          180 147 147 180 181 148
          148 181 182 149 149 182
          183 150 150 183 184 151
          151 184 185 152 152 185
          186 153 153 186 187 154
          154 187 188 155 155 188
          189 156 156 189 190 157
          157 190 191 158 158 191
          192 159 159 192 193 160
          160 193 194 161 161 194
          195 162 162 195 196 163
          163 196 197 164 165 198
          199 166 166 199 200 167
          167 200 201 168 168 201
          202 169 169 202 203 170
          170 203 204 171 171 204
          205 172 172 205 206 173
          173 206 207 174 174 207
          208 175 175 208 209 176
          176 209 210 177 177 210
          211 178 178 211 212 179
          179 212 213 180 180 213
          214 181 181 214 215 182
          182 215 216 183 183 216
          217 184 184 217 218 185
          185 218 219 186 186 219
          220 187 187 220 221 188
          188 221 222 189 189 222
          223 190 190 223 224 191
          191 224 225 192 192 225
          226 193 193 226 227 194
          194 227 228 195 195 228
          229 196 196 229 230 197
          198 231 232 199 199 232
          233 200 200 233 234 201
          201 234 235 202 202 235
          236 203 203 236 237 204
          204 237 238 205 205 238
          239 206 206 239 240 207
          207 240 241 208 208 241
          242 209 209 242 243 210
          210 243 244 211 211 244
          245 212 212 245 246 213
          213 246 247 214 214 247
          248 215 215 248 249 216
          216 249 250 217 217 250
          251 218 218 251 252 219
          219 252 253 220 220 253
          254 221 221 254 255 222
          222 255 256 223 223 256
          257 224 224 257 258 225
          225 258 259 226 226 259
          260 227 227 260 261 228
          228 261 262 229 229 262
          263 230 231 264 265 232
          232 265 266 233 233 266
          267 234 234 267 268 235
          235 268 269 236 236 269
          270 237 237 270 271 238
          238 271 272 239 239 272
          273 240 240 273 274 241
          241 274 275 242 242 275
          276 243 243 276 277 244
          244 277 278 245 245 278
          279 246 246 279 280 247
          247 280 281 248 248 281
          282 249 249 282 283 250
          250 283 284 251 251 284
          285 252 252 285 286 253
          253 286 287 254 254 287
          288 255 255 288 289 256
          256 289 290 257 257 290
          291 258 258 291 292 259
          259 292 293 260 260 293
          294 261 261 294 295 262
          262 295 296 263 264 297
          298 265 265 298 299 266
          266 299 300 267 267 300
          301 268 268 301 302 269
          269 302 303 270 270 303
          304 271 271 304 305 272
          272 305 306 273 273 306
          307 274 274 307 308 275
          275 308 309 276 276 309
          310 277 277 310 311 278
          278 311 312 279 279 312
          313 280 280 313 314 281
          281 314 315 282 282 315
          316 283 283 316 317 284
          284 317 318 285 285 318
          319 286 286 319 320 287
          287 320 321 288 288 321
          322 289 289 322 323 290
          290 323 324 291 291 324
          325 292 292 325 326 293
          293 326 327 294 294 327
          328 295 295 328 329 296
          297 330 331 298 298 331
          332 299 299 332 333 300
          300 333 334 301 301 334
          335 302 302 335 336 303
          303 336 337 304 304 337
          338 305 305 338 339 306
          306 339 340 307 307 340
          341 308 308 341 342 309
          309 342 343 310 310 343
          344 311 311 344 345 312
          312 345 346 313 313 346
          347 314 314 347 348 315
          315 348 349 316 316 349
          350 317 317 350 351 318
          318 351 352 319 319 352
          353 320 320 353 354 321
          321 354 355 322 322 355
          356 323 323 356 357 324
          324 357 358 325 325 358
          359 326 326 359 360 327
          327 360 361 328 328 361
          362 329 330 363 364 331
          331 364 365 332 332 365
          366 333 333 366 367 334
          334 367 368 335 335 368
          369 336 336 369 370 337
          337 370 371 338 338 371
          372 339 339 372 373 340
          340 373 374 341 341 374
          375 342 342 375 376 343
          343 376 377 344 344 377
          378 345 345 378 379 346
          346 379 380 347 347 380
          381 348 348 381 382 349
          349 382 383 350 350 383
          384 351 351 384 385 352
          352 385 386 353 353 386
          387 354 354 387 388 355
          355 388 389 356 356 389
          390 357 357 390 391 358
          358 391 392 359 359 392
          393 360 360 393 394 361
          361 394 395 362 363 396
          397 364 364 397 398 365
          365 398 399 366 366 399
          400 367 367 400 401 368
          368 401 402 369 369 402
          403 370 370 403 404 371
          371 404 405 372 372 405
          406 373 373 406 407 374
          374 407 408 375 375 408
          409 376 376 409 410 377
          377 410 411 378 378 411
          412 379 379 412 413 380
          380 413 414 381 381 414
          415 382 382 415 416 383
          383 416 417 384 384 417
          418 385 385 418 419 386
          386 419 420 387 387 420
          421 388 388 421 422 389
          389 422 423 390 390 423
          424 391 391 424 425 392
          392 425 426 393 393 426
          427 394 394 427 428 395
          396 429 430 397 397 430
          431 398 398 431 432 399
          399 432 433 400 400 433
          434 401 401 434 435 402
          402 435 436 403 403 436
          437 404 404 437 438 405
          405 438 439 406 406 439
          440 407 407 440 441 408
          408 441 442 409 409 442
          443 410 410 443 444 411
          411 444 445 412 412 445
          446 413 413 446 447 414
          414 447 448 415 415 448
          449 416 416 449 450 417
          417 450 451 418 418 451
          452 419 419 452 453 420
          420 453 454 421 421 454
          455 422 422 455 456 423
          423 456 457 424 424 457
          458 425 425 458 459 426
          426 459 460 427 427 460
          461 428 429 462 463 430
          430 463 464 431 431 464
          465 432 432 465 466 433
          433 466 467 434 434 467
          468 435 435 468 469 436
          436 469 470 437 437 470
          471 438 438 471 472 439
          439 472 473 440 440 473
          474 441 441 474 475 442
          442 475 476 443 443 476
          477 444 444 477 478 445
          445 478 479 446 446 479
          480 447 447 480 481 448
          448 481 482 449 449 482
          483 450 450 483 484 451
          451 484 485 452 452 485
          486 453 453 486 487 454
          454 487 488 455 455 488
          489 456 456 489 490 457
          457 490 491 458 458 491
          492 459 459 492 493 460
          460 493 494 461 462 495
          496 463 463 496 497 464
          464 497 498 465 465 498
          499 466 466 499 500 467
          467 500 501 468 468 501
          502 469 469 502 503 470
          470 503 504 471 471 504
          505 472 472 505 506 473
          473 506 507 474 474 507
          508 475 475 508 509 476
          476 509 510 477 477 510
          511 478 478 511 512 479
          479 512 513 480 480 513
          514 481 481 514 515 482
          482 515 516 483 483 516
          517 484 484 517 518 485
          485 518 519 486 486 519
          520 487 487 520 521 488
          488 521 522 489 489 522
          523 490 490 523 524 491
          491 524 525 492 492 525
          526 493 493 526 527 494
          495 528 529 496 496 529
          530 497 497 530 531 498
          498 531 532 499 499 532
          533 500 500 533 534 501
          501 534 535 502 502 535
          536 503 503 536 537 504
          504 537 538 505 505 538
          539 506 506 539 540 507
          507 540 541 508 508 541
          542 509 509 542 543 510
          510 543 544 511 511 544
          545 512 512 545 546 513
          513 546 547 514 514 547
          548 515 515 548 549 516
          516 549 550 517 517 550
          551 518 518 551 552 519
          519 552 553 520 520 553
          554 521 521 554 555 522
          522 555 556 523 523 556
          557 524 524 557 558 525
          525 558 559 526 526 559
          560 527 528 561 562 529
          529 562 563 530 530 563
          564 531 531 564 565 532
          532 565 566 533 533 566
          567 534 534 567 568 535
          535 568 569 536 536 569
          570 537 537 570 571 538
          538 571 572 539 539 572
          573 540 540 573 574 541
          541 574 575 542 542 575
          576 543 543 576 577 544
          544 577 578 545 545 578
          579 546 546 579 580 547
          547 580 581 548 548 581
          582 549 549 582 583 550
          550 583 584 551 551 584
          585 552 552 585 586 553
          553 586 587 554 554 587
          588 555 555 588 589 556
          556 589 590 557 557 590
          591 558 558 591 592 559
          559 592 593 560 561 594
          595 562 562 595 596 563
          563 596 597 564 564 597
          598 565 565 598 599 566
          566 599 600 567 567 600
          601 568 568 601 602 569
          569 602 603 570 570 603
          604 571 571 604 605 572
          572 605 606 573 573 606
          607 574 574 607 608 575
          575 608 609 576 576 609
          610 577 577 610 611 578
          578 611 612 579 579 612
          613 580 580 613 614 581
          581 614 615 582 582 615
          616 583 583 616 617 584
          584 617 618 585 585 618
          619 586 586 619 620 587
          587 620 621 588 588 621
          622 589 589 622 623 590
          590 623 624 591 591 624
          625 592 592 625 626 593
          594 627 628 595 595 628
          629 596 596 629 630 597
          597 630 631 598 598 631
          632 599 599 632 633 600
          600 633 634 601 601 634
          635 602 602 635 636 603
          603 636 637 604 604 637
          638 605 605 638 639 606
          606 639 640 607 607 640
          641 608 608 641 642 609
          609 642 643 610 610 643
          644 611 611 644 645 612
          612 645 646 613 613 646
          647 614 614 647 648 615
          615 648 649 616 616 649
          650 617 617 650 651 618
          618 651 652 619 619 652
          653 620 620 653 654 621
          621 654 655 622 622 655
          656 623 623 656 657 624
          624 657 658 625 625 658
          659 626 627 660 661 628
          628 661 662 629 629 662
          663 630 630 663 664 631
          631 664 665 632 632 665
          666 633 633 666 667 634
          634 667 668 635 635 668
          669 636 636 669 670 637
          637 670 671 638 638 671
          672 639 639 672 673 640
          640 673 674 641 641 674
          675 642 642 675 676 643
          643 676 677 644 644 677
          678 645 645 678 679 646
          646 679 680 647 647 680
          681 648 648 681 682 649
          649 682 683 650 650 683
          684 651 651 684 685 652
          652 685 686 653 653 686
          687 654 654 687 688 655
          655 688 689 656 656 689
          690 657 657 690 691 658
          658 691 692 659 660 693
          694 661 661 694 695 662
          662 695 696 663 663 696
          697 664 664 697 698 665
          665 698 699 666 666 699
          700 667 667 700 701 668
          668 701 702 669 669 702
          703 670 670 703 704 671
          671 704 705 672 672 705
          706 673 673 706 707 674
          674 707 708 675 675 708
          709 676 676 709 710 677
          677 710 711 678 678 711
          712 679 679 712 713 680
          680 713 714 681 681 714
          715 682 682 715 716 683
          683 716 717 684 684 717
          718 685 685 718 719 686
          686 719 720 687 687 720
          721 688 688 721 722 689
          689 722 723 690 690 723
          724 691 691 724 725 692
          693 726 727 694 694 727
          728 695 695 728 729 696
          696 729 730 697 697 730
          731 698 698 731 732 699
          699 732 733 700 700 733
          734 701 701 734 735 702
          702 735 736 703 703 736
          737 704 704 737 738 705
          705 738 739 706 706 739
          740 707 707 740 741 708
          708 741 742 709 709 742
          743 710 710 743 744 711
          711 744 745 712 712 745
          746 713 713 746 747 714
          714 747 748 715 715 748
          749 716 716 749 750 717
          717 750 751 718 718 751
          752 719 719 752 753 720
          720 753 754 721 721 754
          755 722 722 755 756 723
          723 756 757 724 724 757
          758 725 726 759 760 727
          727 760 761 728 728 761
          762 729 729 762 763 730
          730 763 764 731 731 764
          765 732 732 765 766 733
          733 766 767 734 734 767
          768 735 735 768 769 736
          736 769 770 737 737 770
          771 738 738 771 772 739
          739 772 773 740 740 773
          774 741 741 774 775 742
          742 775 776 743 743 776
          777 744 744 777 778 745
          745 778 779 746 746 779
          780 747 747 780 781 748
          748 781 782 749 749 782
          783 750 750 783 784 751
          751 784 785 752 752 785
          786 753 753 786 787 754
          754 787 788 755 755 788
          789 756 756 789 790 757
          757 790 791 758 759 792
          793 760 760 793 794 761
          761 794 795 762 762 795
          796 763 763 796 797 764
          764 797 798 765 765 798
          799 766 766 799 800 767
          767 800 801 768 768 801
          802 769 769 802 803 770
          770 803 804 771 771 804
          805 772 772 805 806 773
          773 806 807 774 774 807
          808 775 775 808 809 776
          776 809 810 777 777 810
          811 778 778 811 812 779
          779 812 813 780 780 813
          814 781 781 814 815 782
          782 815 816 783 783 816
          817 784 784 817 818 785
          785 818 819 786 786 819
          820 787 787 820 821 788
          788 821 822 789 789 822
          823 790 790 823 824 791
          792 825 826 793 793 826
          827 794 794 827 828 795
          795 828 829 796 796 829
          830 797 797 830 831 798
          798 831 832 799 799 832
          833 800 800 833 834 801
          801 834 835 802 802 835
          836 803 803 836 837 804
          804 837 838 805 805 838
          839 806 806 839 840 807
          807 840 841 808 808 841
          842 809 809 842 843 810
          810 843 844 811 811 844
          845 812 812 845 846 813
          813 846 847 814 814 847
          848 815 815 848 849 816
          816 849 850 817 817 850
          851 818 818 851 852 819
          819 852 853 820 820 853
          854 821 821 854 855 822
          822 855 856 823 823 856
          857 824 825 858 859 826
          826 859 860 827 827 860
          861 828 828 861 862 829
          829 862 863 830 830 863
          864 831 831 864 865 832
          832 865 866 833 833 866
          867 834 834 867 868 835
          835 868 869 836 836 869
          870 837 837 870 871 838
          838 871 872 839 839 872
          873 840 840 873 874 841
          841 874 875 842 842 875
          876 843 843 876 877 844
          844 877 878 845 845 878
          879 846 846 879 880 847
          847 880 881 848 848 881
          882 849 849 882 883 850
          850 883 884 851 851 884
          885 852 852 885 886 853
          853 886 887 854 854 887
          888 855 855 888 889 856
          856 889 890 857 858 891
          892 859 859 892 893 860
          860 893 894 861 861 894
          895 862 862 895 896 863
          863 896 897 864 864 897
          898 865 865 898 899 866
          866 899 900 867 867 900
          901 868 868 901 902 869
          869 902 903 870 870 903
          904 871 871 904 905 872
          872 905 906 873 873 906
          907 874 874 907 908 875
          875 908 909 876 876 909
          910 877 877 910 911 878
          878 911 912 879 879 912
          913 880 880 913 914 881
          881 914 915 882 882 915
          916 883 883 916 917 884
          884 917 918 885 885 918
          919 886 886 919 920 887
          887 920 921 888 888 921
          922 889 889 922 923 890
          891 924 925 892 892 925
          926 893 893 926 927 894
          894 927 928 895 895 928
          929 896 896 929 930 897
          897 930 931 898 898 931
          932 899 899 932 933 900
          900 933 934 901 901 934
          935 902 902 935 936 903
          903 936 937 904 904 937
          938 905 905 938 939 906
          906 939 940 907 907 940
          941 908 908 941 942 909
          909 942 943 910 910 943
          944 911 911 944 945 912
          912 945 946 913 913 946
          947 914 914 947 948 915
          915 948 949 916 916 949
          950 917 917 950 951 918
          918 951 952 919 919 952
          953 920 920 953 954 921
          921 954 955 922 922 955
          956 923 924 957 958 925
          925 958 959 926 926 959
          960 927 927 960 961 928
          928 961 962 929 929 962
          963 930 930 963 964 931
          931 964 965 932 932 965
          966 933 933 966 967 934
          934 967 968 935 935 968
          969 936 936 969 970 937
          937 970 971 938 938 971
          972 939 939 972 973 940
          940 973 974 941 941 974
          975 942 942 975 976 943
          943 976 977 944 944 977
          978 945 945 978 979 946
          946 979 980 947 947 980
          981 948 948 981 982 949
          949 982 983 950 950 983
          984 951 951 984 985 952
          952 985 986 953 953 986
          987 954 954 987 988 955
          955 988 989 956 957 990
          991 958 958 991 992 959
          959 992 993 960 960 993
          994 961 961 994 995 962
          962 995 996 963 963 996
          997 964 964 997 998 965
          965 998 999 966 966 999
          1000 967 967 1000 1001 968
          968 1001 1002 969 969 1002
          1003 970 970 1003 1004 971
          971 1004 1005 972 972 1005
          1006 973 973 1006 1007 974
          974 1007 1008 975 975 1008
          1009 976 976 1009 1010 977
          977 1010 1011 978 978 1011
          1012 979 979 1012 1013 980
          980 1013 1014 981 981 1014
          1015 982 982 1015 1016 983
          983 1016 1017 984 984 1017
          1018 985 985 1018 1019 986
          986 1019 1020 987 987 1020
          1021 988 988 1021 1022 989
          990 1023 1024 991 991 1024
          1025 992 992 1025 1026 993
          993 1026 1027 994 994 1027
          1028 995 995 1028 1029 996
          996 1029 1030 997 997 1030
          1031 998 998 1031 1032 999
          999 1032 1033 1000 1000 1033
          1034 1001 1001 1034 1035 1002
          1002 1035 1036 1003 1003 1036
          1037 1004 1004 1037 1038 1005
          1005 1038 1039 1006 1006 1039
          1040 1007 1007 1040 1041 1008
          1008 1041 1042 1009 1009 1042
          1043 1010 1010 1043 1044 1011
          1011 1044 1045 1012 1012 1045
          1046 1013 1013 1046 1047 1014
          1014 1047 1048 1015 1015 1048
          1049 1016 1016 1049 1050 1017
          1017 1050 1051 1018 1018 1051
          1052 1019 1019 1052 1053 1020
          1020 1053 1054 1021 1021 1054
          1055 1022 1023 1056 1057 1024
          1024 1057 1058 1025 1025 1058
          1059 1026 1026 1059 1060 1027
          1027 1060 1061 1028 1028 1061
          1062 1029 1029 1062 1063 1030
          1030 1063 1064 1031 1031 1064
          1065 1032 1032 1065 1066 1033
          1033 1066 1067 1034 1034 1067
          1068 1035 1035 1068 1069 1036
          1036 1069 1070 1037 1037 1070
          1071 1038 1038 1071 1072 1039
          1039 1072 1073 1040 1040 1073
          1074 1041 1041 1074 1075 1042
          1042 1075 1076 1043 1043 1076
          1077 1044 1044 1077 1078 1045
          1045 1078 1079 1046 1046 1079
          1080 1047 1047 1080 1081 1048
          1048 1081 1082 1049 1049 1082
          1083 1050 1050 1083 1084 1051
          1051 1084 1085 1052 1052 1085
          1086 1053 1053 1086 1087 1054
          1054 1087 1088 1055
        </DataArray>
        <DataArray type="Int64" Name="offsets" format="ascii" RangeMin="4" RangeMax="4096">
          4 8 12 16 20 24
          28 32 36 40 44 48
          52 56 60 64 68 72
          76 80 84 88 92 96
          100 104 108 112 116 120
          124 128 132 136 140 144
          148 152 156 160 164 168
          172 176 180 184 188 192
          196 200 204 208 212 216
          220 224 228 232 236 240
          244 248 252 256 260 264
          268 272 276 280 284 288
          292 296 300 304 308 312
          316 320 324 328 332 336
          340 344 348 352 356 360
          364 368 372 376 380 384
          388 392 396 400 404 408
          412 416 420 424 428 432
          436 440 444 448 452 456
          460 464 468 472 476 480
          484 488 492 496 500 504
          508 512 516 520 524 528
          532 536 540 544 548 552
          556 560 564 568 572 576
          580 584 588 592 596 600
          604 608 612 616 620 624
          628 632 636 640 644 648
          652 656 660 664 668 672
          676 680 684 688 692 696
          700 704 708 712 716 720
          724 728 732 736 740 744
          748 752 756 760 764 768
          772 776 780 784 788 792
          796 800 804 808 812 816
          820 824 828 832 836 840
          844 848 852 856 860 864
          868 872 876 880 884 888
          892 896 900 904 908 912
          916 920 924 928 932 936
          940 944 948 952 956 960
          964 968 972 976 980 984
          988 992 996 1000 1004 1008
          1012 1016 1020 1024 1028 1032
          1036 1040 1044 1048 1052 1056
          1060 1064 1068 1072 1076 1080
          1084 1088 1092 1096 1100 1104
          1108 1112 1116 1120 1124 1128
          1132 1136 1140 1144 1148 1152
          1156 1160 1164 1168 1172 1176
          1180 1184 1188 1192 1196 1200
          1204 1208 1212 1216 1220 1224
          1228 1232 1236 1240 1244 1248
          1252 1256 1260 1264 1268 1272
          1276 1280 1284 1288 1292 1296
          1300 1304 1308 1312 1316 1320
          1324 1328 1332 1336 1340 1344
          1348 1352 1356 1360 1364 1368
          1372 1376 1380 1384 1388 1392
          1396 1400 1404 1408 1412 1416
          1420 1424 1428 1432 1436 1440
          1444 1448 1452 1456 1460 1464
          1468 1472 1476 1480 1484 1488
          1492 1496 1500 1504 1508 1512
          1516 1520 1524 1528 1532 1536
          1540 1544 1548 1552 1556 1560
          1564 1568 1572 1576 1580 1584
          1588 1592 1596 1600 1604 1608
          1612 1616 1620 1624 1628 1632
          1636 1640 1644 1648 1652 1656
          1660 1664 1668 1672 1676 1680
          1684 1688 1692 1696 1700 1704
          1708 1712 1716 1720 1724 1728
          1732 1736 1740 1744 1748 1752
          1756 1760 1764 1768 1772 1776
          1780 1784 1788 1792 1796 1800
          1804 1808 1812 1816 1820 1824
          1828 1832 1836 1840 1844 1848
          1852 1856 1860 1864 1868 1872
          1876 1880 1884 1888 1892 1896
          1900 1904 1908 1912 1916 1920
          1924 1928 1932 1936 1940 1944
          1948 1952 1956 1960 1964 1968
          1972 1976 1980 1984 1988 1992
          1996 2000 2004 2008 2012 2016
          2020 2024 2028 2032 2036 2040
          2044 2048 2052 2056 2060 2064
          2068 2072 2076 2080 2084 2088
          2092 2096 2100 2104 2108 2112
          2116 2120 2124 2128 2132 2136
          2140 2144 2148 2152 2156 2160
          2164 2168 2172 2176 2180 2184
          2188 2192 2196 2200 2204 2208
          2212 2216 2220 2224 2228 2232
          2236 2240 2244 2248 2252 2256
          2260 2264 2268 2272 2276 2280
          2284 2288 2292 2296 2300 2304
          2308 2312 2316 2320 2324 2328
          2332 2336 2340 2344 2348 2352
          2356 2360 2364 2368 2372 2376
          2380 2384 2388 2392 2396 2400
          2404 2408 2412 2416 2420 2424
          2428 2432 2436 2440 2444 2448
          2452 2456 2460 2464 2468 2472
          2476 2480 2484 2488 2492 2496
          2500 2504 2508 2512 2516 2520
          2524 2528 2532 2536 2540 2544
          2548 2552 2556 2560 2564 2568
          2572 2576 2580 2584 2588 2592
          2596 2600 2604 2608 2612 2616
          2620 2624 2628 2632 2636 2640
          2644 2648 2652 2656 2660 2664
          2668 2672 2676 2680 2684 2688
          2692 2696 2700 2704 2708 2712
          2716 2720 2724 2728 2732 2736
          2740 2744 2748 2752 2756 2760
          2764 2768 2772 2776 2780 2784
          2788 2792 2796 2800 2804 2808
          2812 2816 2820 2824 2828 2832
          2836 2840 2844 2848 2852 2856
          2860 2864 2868 2872 2876 2880
          2884 2888 2892 2896 2900 2904
          2908 2912 2916 2920 2924 2928
          2932 2936 2940 2944 2948 2952
          2956 2960 2964 2968 2972 2976
          2980 2984 2988 2992 2996 3000
          3004 3008 3012 3016 3020 3024
          3028 3032 3036 3040 3044 3048
          3052 3056 3060 3064 3068 3072
          3076 3080 3084 3088 3092 3096
          3100 3104 3108 3112 3116 3120
          3124 3128 3132 3136 3140 3144
          3148 3152 3156 3160 3164 3168
          3172 3176 3180 3184 3188 3192
          3196 3200 3204 3208 3212 3216
          3220 3224 3228 3232 3236 3240
          3244 3248 3252 3256 3260 3264
          3268 3272 3276 3280 3284 3288
          3292 3296 3300 3304 3308 3312
          3316 3320 3324 3328 3332 3336
          3340 3344 3348 3352 3356 3360
          3364 3368 3372 3376 3380 3384
          3388 3392 3396 3400 3404 3408
          3412 3416 3420 3424 3428 3432
          3436 3440 3444 3448 3452 3456
          3460 3464 3468 3472 3476 3480
          3484 3488 3492 3496 3500 3504
          3508 3512 3516 3520 3524 3528
          3532 3536 3540 3544 3548 3552
          3556 3560 3564 3568 3572 3576
          3580 3584 3588 3592 3596 3600
          3604 3608 3612 3616 3620 3624
          3628 3632 3636 3640 3644 3648
          3652 3656 3660 3664 3668 3672
          3676 3680 3684 3688 3692 3696
          3700 3704 3708 3712 3716 3720
          3724 3728 3732 3736 3740 3744
          3748 3752 3756 3760 3764 3768
          3772 3776 3780 3784 3788 3792
          3796 3800 3804 3808 3812 3816
          3820 3824 3828 3832 3836 3840
          3844 3848 3852 3856 3860 3864
          3868 3872 3876 3880 3884 3888
          3892 3896 3900 3904 3908 3912
          3916 3920 3924 3928 3932 3936
          3940 3944 3948 3952 3956 3960
          3964 3968 3972 3976 3980 3984
          3988 3992 3996 4000 4004 4008
          4012 4016 4020 4024 4028 4032
          4036 4040 4044 4048 4052 4056
          4060 4064 4068 4072 4076 4080
          4084 4088 4092 4096
        </DataArray>
        <DataArray type="UInt8" Name="types" format="ascii" RangeMin="9" RangeMax="9">
          9 9 9 9 9 9
          9 9 9 9 9 9
          9 9 9 9 9 9
          9 9 9 9 9 9
          9 9 9 9 9 9
          9 9 9 9 9 9
          9 9 9 9 9 9
          9 9 9 9 9 9
          9 9 9 9 9 9
          9 9 9 9 9 9
          9 9 9 9 9 9
          9 9 9 9 9 9
          9 9 9 9 9 9
          9 9 9 9 9 9
          9 9 9 9 9 9
          9 9 9 9 9 9
          9 9 9 9 9 9
          9 9 9 9 9 9
          9 9 9 9 9 9
          9 9 9 9 9 9
          9 9 9 9 9 9
          9 9 9 9 9 9
          9 9 9 9 9 9
          9 9 9 9 9 9
          9 9 9 9 9 9
          9 9 9 9 9 9
          9 9 9 9 9 9
          9 9 9 9 9 9
          9 9 9 9 9 9
          9 9 9 9 9 9
          9 9 9 9 9 9
          9 9 9 9 9 9
          9 9 9 9 9 9
          9 9 9 9 9 9
          9 9 9 9 9 9
          9 9 9 9 9 9
          9 9 9 9 9 9
          9 9 9 9 9 9
          9 9 9 9 9 9
          9 9 9 9 9 9
          9 9 9 9 9 9
          9 9 9 9 9 9
          9 9 9 9 9 9
          9 9 9 9 9 9
          9 9 9 9 9 9
          9 9 9 9 9 9
          9 9 9 9 9 9
          9 9 9 9 9 9
          9 9 9 9 9 9
          9 9 9 9 9 9
          9 9 9 9 9 9
          9 9 9 9 9 9
          9 9 9 9 9 9
          9 9 9 9 9 9
          9 9 9 9 9 9
          9 9 9 9 9 9
          9 9 9 9 9 9
          9 9 9 9 9 9
          9 9 9 9 9 9
          9 9 9 9 9 9
          9 9 9 9 9 9
          9 9 9 9 9 9
          9 9 9 9 9 9
          9 9 9 9 9 9
          9 9 9 9 9 9
          9 9 9 9 9 9
          9 9 9 9 9 9
          9 9 9 9 9 9
          9 9 9 9 9 9
          9 9 9 9 9 9
          9 9 9 9 9 9
          9 9 9 9 9 9
          9 9 9 9 9 9
          9 9 9 9 9 9
          9 9 9 9 9 9
          9 9 9 9 9 9
          9 9 9 9 9 9
          9 9 9 9 9 9
          9 9 9 9 9 9
          9 9 9 9 9 9
          9 9 9 9 9 9
          9 9 9 9 9 9
          9 9 9 9 9 9
          9 9 9 9 9 9
          9 9 9 9 9 9
          9 9 9 9 9 9
          9 9 9 9 9 9
          9 9 9 9 9 9
          9 9 9 9 9 9
          9 9 9 9 9 9
          9 9 9 9 9 9
          9 9 9 9 9 9
          9 9 9 9 9 9
          9 9 9 9 9 9
          9 9 9 9 9 9
          9 9 9 9 9 9
          9 9 9 9 9 9
          9 9 9 9 9 9
          9 9 9 9 9 9
          9 9 9 9 9 9
          9 9 9 9 9 9
          9 9 9 9 9 9
          9 9 9 9 9 9
          9 9 9 9 9 9
          9 9 9 9 9 9
          9 9 9 9 9 9
          9 9 9 9 9 9
          9 9 9 9 9 9
          9 9 9 9 9 9
          9 9 9 9 9 9
          9 9 9 9 9 9
          9 9 9 9 9 9
          9 9 9 9 9 9
          9 9 9 9 9 9
          9 9 9 9 9 9
          9 9 9 9 9 9
          9 9 9 9 9 9
          9 9 9 9 9 9
          9 9 9 9 9 9
          9 9 9 9 9 9
          9 9 9 9 9 9
          9 9 9 9 9 9
          9 9 9 9 9 9
          9 9 9 9 9 9
          9 9 9 9 9 9
          9 9 9 9 9 9
          9 9 9 9 9 9
          9 9 9 9 9 9
          9 9 9 9 9 9
          9 9 9 9 9 9
          9 9 9 9 9 9
          9 9 9 9 9 9
          9 9 9 9 9 9
          9 9 9 9 9 9
          9 9 9 9 9 9
          9 9 9 9 9 9
          9 9 9 9 9 9
          9 9 9 9 9 9
          9 9 9 9 9 9
          9 9 9 9 9 9
          9 9 9 9 9 9
          9 9 9 9 9 9
          9 9 9 9 9 9
          9 9 9 9 9 9
          9 9 9 9 9 9
          9 9 9 9 9 9
          9 9 9 9 9 9
          9 9 9 9 9 9
          9 9 9 9 9 9
          9 9 9 9 9 9
          9 9 9 9 9 9
          9 9 9 9 9 9
          9 9 9 9 9 9
          9 9 9 9 9 9
          9 9 9 9 9 9
          9 9 9 9 9 9
          9 9 9 9 9 9
          9 9 9 9 9 9
          9 9 9 9 9 9
          9 9 9 9 9 9
          9 9 9 9 9 9
          9 9 9 9 9 9
          9 9 9 9 9 9
          9 9 9 9 9 9
          9 9 9 9 9 9
          9 9 9 9 9 9
          9 9 9 9 9 9
          9 9 9 9 9 9
          9 9 9 9 9 9
          9 9 9 9 9 9
          9 9 9 9
        </DataArray>
      </Cells>
    </Piece>
  </UnstructuredGrid>
</VTKFile>
