<?xml version="1.0"?>
<VTKFile type="UnstructuredGrid" version="0.1" byte_order="LittleEndian" header_type="UInt32" compressor="vtkZLibDataCompressor">
  <UnstructuredGrid>
    <Piece NumberOfPoints="1089" NumberOfCells="1024">
      <PointData>
        <DataArray type="Float64" Name="P1" format="ascii" RangeMin="-12425954.414287694" RangeMax="37888182.4701925">
          -10606215.520262375 3242295.968479351 3258950.255036991 -1996659.4836381075 -3964940.0705945967 -3694798.032257419
          -2235139.8950515175 1622001.4372333442 9084593.060807403 16947913.863038026 22007242.731292583 25284049.5604058
          27799804.24521238 29641118.34538859 30894603.42061068 31689341.001635645 32154412.619220458 32339586.612202115
          32294631.319417596 32034851.84159562 31575553.279464893 30900410.033156272 29993096.502800606 28790495.245607983
          27229488.8187885 25242162.139226653 22760600.12380696 19357062.485482186 14603808.937205091 9456756.1450073
          4871820.774920429 1038479.6305798327 -1853790.4843791444 -10797699.430827238 3300832.160657741 3317787.1217056448
          -2032707.0454745851 -4036522.8386740056 -3761503.672995217 -2275492.9635408176 1651284.9425476664 9248605.698128711
          17253890.369820967 22404560.024243083 25740526.105520513 28301700.057778705 30176257.120034114 31452372.531303197
          32261458.251692433 32734926.241308313 32923443.35325958 32877676.440654982 32613206.92149203 32145616.213768233
          31458283.976324603 30534589.868002158 29310276.927908 27721088.195149247 25697882.45223101 23171518.481658407
          19706533.601728305 14867465.130737554 9627487.79056917 4959776.303106171 1057228.2732331837 -1887258.6941651576
          -10983196.430286024 3357538.173617644 3374784.409789672 -2067627.5423826172 -4105867.5035119024 -3826123.6993687865
          -2314584.355723872 1679652.875123637 9407490.340874536 17550300.26062695 22789454.853479005 26182730.522219725
          28787903.669638153 30694664.324294984 31992702.51475093 32815687.767600846 33297289.609439578 33489045.31483089
          33442492.15833857 33173479.23593251 32697855.643582616 31998715.514175694 31059152.980598565 29813807.19185939
          28197317.29696634 26139354.280179307 23569589.12575819 20045078.204642195 15122877.887770534 9792881.364898646
          5044981.825781967 1075390.722737376 -1919680.4919182425 -11161722.917606467 3412113.31494081 3429639.880224711
          -2101235.817036929 -4172606.3721262733 -3888315.469304581 -2352206.7928331117 1706954.8110729707 9560404.496198501
          17835571.809697013 23159886.29872205 26608318.004284266 29255836.967394326 31193591.08417069 32512728.250731807
          33349090.726468198 33838520.77077039 34033393.37140062 33986083.51612111 33712697.920207456 33229343.298935235
          32518838.988587663 31564004.325447958 30298416.049850564 28655650.90212992 26564236.702782348 23952701.272304185
          20370901.14953276 15368692.87330542 9952059.86313512 5126985.538534845 1092870.6730853475 -1950883.9596326165
          -11332279.08025417 3464251.944873849 3482046.323602737 -2133343.6499709175 -4236365.681750523 -3947730.6854717033
          -2388149.5748700825 1733037.8502840986 9706491.790220598 18108107.394038677 23513779.81083761 27014905.10885414
          29702879.356325034 31670243.230353512 33009537.408042815 33858679.879799485 34355588.63603006 34553438.97794226
          34505406.206743754 34227843.155587465 33737102.65762628 33015741.520850234 32046316.553249363 30761389.51778053
          29093522.177400608 26970150.225454185 24318709.355285857 20682177.710537758 15603533.434852015 10104131.828307485
          5205328.1909830095 1109570.2302006623 -1980694.3467174822 -11493859.936849494 3513646.8451842754 3531694.944361535
          -2163761.84676314 -4296769.735635175 -4004019.248541813 -2422200.911770297 1757748.302633989 9844891.422625659
          18366301.132737365 23849050.117501754 27400096.07314927 30126396.695910364 32121812.150502615 33480202.60164361
          34341452.5379926 34845446.44820882 35046117.83144512 34997400.18685435 34715879.51381872 34218141.81172043
          33486495.17548085 32503247.70002132 31199999.58284268 29508351.021445733 27354703.053857274 24665456.718104094
          20977073.72962402 15826015.803854916 10248201.19534989 5279548.158662055 1125390.993773605 -2008935.9993332697
          -11645467.557807695 3559992.9506079187 3578279.1100612553 -2192302.544146808 -4353445.476715394 -4056833.5188464695
          -2454150.5017420063 1780933.554939724 9974748.631540447 18608558.410953354 24163626.57607165 27761511.94266976
          30523773.326522134 32545508.937384456 33921816.98501243 34794427.07838636 35305068.82648655 35508387.1282514
          35459026.88261931 35173792.86351104 34669489.84484736 33928192.55976702 32931975.741408795 31611537.37240457
          29897575.435386226 27715520.174966812 24990801.83575939 21253767.917702336 16034765.920734055 10383378.186410166
          5349187.0562863145 1140235.2542279016 -2035434.4958996598 -11786124.267659742 3602991.3870378835 3621498.411071481
          -2218781.6923803906 -4406027.420139171 -4105832.9129680498 -2483792.3116302127 1802444.09129217 10095226.003216924
          18833316.978008576 24455480.56953165 28096822.04605531 30892446.675848734 32938601.287322488 34331532.708887115
          35214682.39324222 35731491.79308736 35937265.82136705 35887309.39102576 35598630.248016536 35088236.1382924
          34337985.289381504 33329735.928811997 31993348.99306864 30258685.418636184 28050274.77899534 25292646.6476268
          21510475.950559825 16228437.61382373 10508791.082582468 5413795.802000037 1154007.2851554996 -2060018.9548720769
          -11914886.577166935 3642353.7321021166 3661062.9435784644 -2243021.6758868503 -4454162.859442789 -4150688.755250063
          -2510927.51146938 1822135.6248155897 10205515.406521177 19039069.21112351 24722654.416098706 28403777.209016636
          31229943.777447153 33298452.43743334 34706601.50501827 35599399.517408445 36121855.01181037 36329877.10218975
          36279374.902512334 35987541.96677171 35471571.84896149 34713124.57943575 33693860.18854859 32342873.35005077
          30589258.737693086 28356721.41757761 25568966.45580641 21745475.89626308 16405731.782831222 10623598.646132808
          5472941.016789844 1166614.7072586608 -2082524.470004405 -12030859.535535038 3677806.401717305 3696697.718348596
          -2264854.0163535275 -4497517.23310143 -4191089.2787234923 -2535367.5000480884 1839871.291701509 10304850.285302026
          19224385.048341103 24963291.14840637 28680243.96770726 31533918.8884532 33622561.2750282 35044416.491816245
          35945904.509438746 36473445.29851711 36683492.16160865 36632498.401270695 36337824.92410276 35816832.63670435
          35051003.058243714 34021817.7078891 32657681.105909918 30886997.772575565 28632730.161027912 25817840.724408835
          21957134.408874612 16565416.160581505 10727002.91737643 5526211.617106304 1177969.893732173 -2102794.618784913
          -12133211.143961769 3709095.0557054025 3728147.0887692003 -2284122.0869366652 -4535779.513578483 -4226744.64702696
          -2556936.9431528035 1855523.8547626615 10392518.00343811 19387935.019645672 25175664.420157485 28924238.928516027
          31802191.268263794 33908602.61863628 35342554.15886896 36251711.51617572 36783740.31777043 36995574.138322376
          36944146.55250082 36646966.163476795 36121541.57442133 35349196.759957545 34311255.694708586 32935513.805928726
          31149766.520872306 28876320.901700694 26037484.01057523 22143933.034199584 16706345.15927739 10818262.066273823
          5573225.435654047 1187991.3816208558 -2120683.981622961 -12221186.43615742 3735988.902482384 3755179.077747261
          -2300683.7625639443 -4568667.470652388 -4257391.859076079 -2575476.74039302 1868977.8572673667 10467871.905775657
          19528512.746977963 25358207.722720407 29133962.334820572 32032782.085096095 34154466.569002934 35598815.381997064
          36514564.842846125 37050451.270317785 37263821.052128986 37212020.57599671 36912685.396189965 36383451.066977724
          35605506.147158965 34560039.19553263 33174322.099598553 31375626.746856578 29085696.864763916 26226276.18077776
          22304493.907619987 16827479.258012485 10896702.946840866 5613635.68899075 1196605.25041702 -2136060.6029254473
          -12294120.810770344 3758284.774937688 3777589.4745630235 -2314413.9296072004 -4595932.655285847 -4282799.393311022
          -2590846.8345208266 1880131.6622613089 10530342.738211954 19645056.248780496 25509542.049416337 29307829.850319866
          32223949.361691505 34358295.769367315 35811264.25918337 36732478.78798115 37271563.312602155 37486206.45618771
          37434096.84187915 37132975.27052945 36600582.54299154 35817994.953947596 34766288.79807977 33372301.93142734
          31562872.210029617 29259276.33857699 26382791.021759823 22437604.08663354 16927903.36025354 10961732.984567638
          5647137.101523654 1203746.4274296637 -2148808.3214062536 -12351452.19744869 3775810.8494748594 3795205.573021642
          -2325206.77624005 -4617364.94774192 -4302771.445990219 -2602928.775491195 1888899.3128308712 10579449.068051698
          19736667.38014359 25628501.139078867 29444501.56133104 32374219.86337366 34518519.405653104 35978263.548615776
          36903773.9930954 37445372.43992573 37661016.532604024 37608663.914627515 37306138.11783381 36771262.674060464
          35985025.63074619 34928415.035329655 33527927.565556195 31710059.89917112 29395721.629156873 26505822.34849586
          22542237.75474245 17006843.545450993 11012851.024024824 5673471.493867267 1209359.8790141004 -2158828.8964988934
          -12392731.654829087 3788429.8857320254 3807889.4278491014 -2332977.7875209083 -4632796.519421049 -4317151.623145878
          -2611627.9539899537 1895212.1526317738 10614806.361304352 19802628.76732 25714153.465970922 29542907.2409727
          32482416.876040924 34633882.82435607 36098505.53909867 37027109.10723096 37570517.61571521 37786882.40673551
          37734354.822475955 37430817.96232242 36894154.92566075 36105290.22059232 35045148.355218485 33639980.353800945
          31816037.24060144 29493964.282672767 26594406.747067742 22617575.563457515 17063681.66151322 11049656.77830574
          5692432.650905961 1213401.6482565992 -2166043.86069963 -12417632.036012508 3796041.875632863 3815540.51729989
          -2337665.3767793747 -4642105.072372873 -4325825.959336653 -2616875.4275267594 1899020.1512441472 10636134.405163402
          19842417.65470595 25765820.220346734 29602267.006947655 32547682.919370636 34703471.7501349 36171037.29175971
          37101506.677973285 37646007.04250386 37862806.569457985 37810173.44294215 37506026.69437056 36968285.35515742
          36177835.60553362 35115563.62573005 33707572.25818193 31879964.34532443 29553225.708888393 26647842.170604646
          22663020.44745716 17097967.256429933 11071858.555378981 5703870.302160346 1215839.7034300305 -2170396.0341559583
          -12425954.414287694 3798586.007741151 3818097.7175423764 -2339232.0953857354 -4645216.241544902 -4328725.156186284
          -2618629.2745610387 1900292.8869666841 10643262.812032737 19855716.172857653 25783088.641661987 29622106.640005656
          32569496.589448594 34726730.24399556 36195279.35765136 37126372.35053769 37671237.64277627 37888182.4701925
          37835514.06861178 37531163.47889997 36993061.74192295 36202082.22770486 35139098.30626983 33730163.293694146
          31901330.506054044 29573032.47415819 26665701.72881524 22678209.352073494 17109426.42598125 11079278.987443835
          5707693.073366565 1216654.5671554785 -2171850.6477833875 -12417632.036016608 3796041.8756303466 3815540.517298142
          -2337665.3767806957 -4642105.072373641 -4325825.959336968 -2616875.427526956 1899020.1512439984 10636134.405163502
          19842417.654706262 25765820.220346976 29602267.006947644 32547682.91937023 34703471.75013431 36171037.291759476
          37101506.67797332 37646007.04250345 37862806.56945698 37810173.44294101 37506026.69436957 36968285.35515667
          36177835.605533116 35115563.625729725 33707572.258181676 31879964.345324155 29553225.708888147 26647842.170604646
          22663020.44745743 17097967.2564303 11071858.555379609 5703870.302161694 1215839.703431186 -2170396.034157284
          -12392731.654833283 3788429.88572983 3807889.427847467 -2332977.7875225134 -4632796.519422253 -4317151.6231466085
          -2611627.95399044 1895212.1526314393 10614806.361304214 19802628.767319996 25714153.465970896 29542907.240972497
          32482416.87604039 34633882.82435538 36098505.5390983 37027109.10723078 37570517.615714446 37786882.40673407
          37734354.822474405 37430817.96232112 36894154.92565986 36105290.220591836 35045148.35521827 33639980.353800826
          31816037.24060119 29493964.28267247 26594406.747067783 22617575.563457903 17063681.661513623 11049656.77830634
          5692432.650907451 1213401.648257924 -2166043.860701273 -12351452.197447393 3775810.8494768688 3795205.573022713
          -2325206.7762404047 -4617364.9477430275 -4302771.445991479 -2602928.775492081 1888899.312830329 10579449.06805092
          19736667.38014251 25628501.13907793 29444501.56133049 32374219.8633735 34518519.40565311 35978263.54861549
          36903773.993094705 37445372.4399248 37661016.53260303 37608663.91462663 37306138.11783319 36771262.67406029
          35985025.63074645 34928415.03533018 33527927.565556727 31710059.89917132 29395721.629156794 26505822.34849596
          22542237.754742708 17006843.545450937 11012851.024024475 5673471.493867164 1209359.8790141486 -2158828.89649942
          -12294120.810765745 3758284.7749417867 3777589.474565659 -2314413.9296063804 -4595932.655286585 -4282799.39331257
          -2590846.834521946 1880131.6622607573 10530342.738211017 19645056.24877906 25509542.04941512 29307829.85031935
          32223949.361691896 34358295.769368134 35811264.25918344 36732478.7879803 37271563.312601216 37486206.45618704
          37434096.84187864 37132975.270529136 36600582.54299165 35817994.95394813 34766288.79808053 33372301.931428052
          31562872.21002992 29259276.33857686 26382791.02175964 22437604.086633302 16927903.360252906 10961732.98456654
          5647137.101522278 1203746.4274285801 -2148808.321406095 -12221186.436157858 3735988.902481817 3755179.0777473324
          -2300683.7625634773 -4568667.47065278 -4257391.859077355 -2575476.7403939804 1868977.8572670962 10467871.90577563
          19528512.74697796 25358207.722720426 29133962.33482079 32032782.0850968 34154466.56900392 35598815.38199761
          36514564.84284593 37050451.270316966 37263821.052127734 37212020.57599527 36912685.3961886 36383451.06697678
          35605506.147158474 34560039.19553239 33174322.09959834 31375626.746856198 29085696.864763267 26226276.18077691
          22304493.90761907 16827479.25801172 10896702.9468403 5613635.688990231 1196605.2504163443 -2136060.6029265323
          -12133211.143966407 3709095.0557007585 3728147.08876673 -2284122.0869368943 -4535779.513578514 -4226744.6470275605
          -2556936.9431534647 1855523.8547623567 10392518.003438486 19387935.01964656 25175664.420158237 28924238.92851643
          31802191.26826406 33908602.61863653 35342554.158869304 36251711.51617586 36783740.31776971 36995574.138320796
          36944146.55249903 36646966.16347516 36121541.57441993 35349196.759956434 34311255.694707796 32935513.80592825
          31149766.52087202 28876320.901700445 26037484.010574844 22143933.034199227 16706345.159277616 10818262.066274624
          5573225.435654856 1187991.3816207857 -2120683.98162511 -12030859.535534734 3677806.401715933 3696697.718347562
          -2264854.016353556 -4497517.233101133 -4191089.2787234313 -2535367.5000487086 1839871.2917003222 10304850.285300946
          19224385.04834031 24963291.148405574 28680243.967706323 31533918.888452124 33622561.27502709 35044416.49181533
          35945904.50943804 36473445.29851642 36683492.16160814 36632498.40127082 36337824.92410341 35816832.6367048
          35051003.05824393 34021817.70788976 32657681.10591124 30886997.772577357 28632730.161029994 25817840.72441103
          21957134.408876903 16565416.160584055 10727002.917378724 5526211.617107142 1177969.8937314886 -2102794.61878606
          -11914886.577161865 3642353.73210469 3661062.9435793906 -2243021.6758867837 -4454162.8594428515 -4150688.755250333
          -2510927.511470745 1822135.6248130589 10205515.406518219 19039069.211120572 24722654.416095957 28403777.20901419
          31229943.777445085 33298452.437431615 34706601.505016774 35599399.51740734 36121855.01181015 36329877.10219073
          36279374.90251463 35987541.96677479 35471571.84896412 34713124.579437785 33693860.18855094 32342873.350053865
          30589258.73769685 28356721.41758189 25568966.45581098 21745475.896267764 16405731.782835888 10623598.64613642
          5472941.016790428 1166614.7072569886 -2082524.4700048275 -11786124.26765876 3602991.3870383147 3621498.411071225
          -2218781.6923813107 -4406027.420140575 -4105832.912970052 -2483792.311633226 1802444.0912883652 10095226.00321318
          18833316.978005223 24455480.569528513 28096822.046052612 30892446.675847083 32938601.287321895 34331532.70888701
          35214682.39324246 35731491.79308828 35937265.82136882 35887309.39102842 35598630.24801974 35088236.138295434
          34337985.28938418 33329735.92881461 31993348.99307158 30258685.41863991 28050274.77899981 25292646.64763145
          21510475.950564604 16228437.61382903 10508791.082587145 5413795.802001372 1154007.2851536362 -2060018.9548741274
          -11645467.55780976 3559992.950605278 3578279.1100589824 -2192302.5441486053 -4353445.476717444 -4056833.5188493235
          -2454150.501746027 1780933.5549349715 9974748.631536197 18608558.410950005 24163626.57606875 27761511.942667477
          30523773.3265212 32545508.93738486 33921816.985013396 34794427.078387536 35305068.82648802 35508387.12825318
          35459026.88262133 35173792.8635133 34669489.84484989 33928192.55976973 32931975.741411418 31611537.372407284
          29897575.435389664 27715520.174971018 24990801.8357638 21253767.917707082 16034765.920739941 10383378.186416075
          5349187.056289197 1140235.254226986 -2035434.4959028813 -11493859.93684484 3513646.845183157 3531694.944359245
          -2163761.8467644625 -4296769.735635855 -4004019.2485428923 -2422200.9117735373 1757748.3026286995 9844891.4226203
          18366301.132733 23849050.11749854 27400096.073147193 30126396.69590924 32121812.150502115 33480202.60164327
          34341452.537992425 34845446.448209316 35046117.831446365 34997400.18685599 34715879.51382065 34218141.811722845
          33486495.175483853 32503247.700024962 31199999.5828469 29508351.021450404 27354703.053862426 24665456.718109906
          20977073.72963071 15826015.803862697 10248201.195357472 5279548.158666638 1125390.9937744872 -2008935.9993346953
          -11332279.08024525 3464251.9448750815 3482046.323601923 -2133343.649970883 -4236365.681749498 -3947730.685471025
          -2388149.574872571 1733037.8502783943 9706491.790214395 18108107.39403354 23513779.810833942 27014905.10885174
          29702879.356323045 31670243.230351526 33009537.408040836 33858679.87979788 34355588.636029564 34553438.97794301
          34505406.20674532 34227843.155589625 33737102.657629065 33015741.520853773 32046316.55325387 30761389.517785862
          29093522.177406263 26970150.225460254 24318709.355293024 20682177.71054625 15603533.434861606 10104131.828316528
          5205328.190988443 1109570.2302022635 -1980694.3467171025 -11161722.917605601 3412113.3149415283 3429639.880225754
          -2101235.817035523 -4172606.3721249 -3888315.4693045085 -2352206.7928364775 1706954.8110666813 9560404.49619245
          17835571.809692454 23159886.29871832 26608318.004280984 29255836.967391387 31193591.084168177 32512728.250729993
          33349090.726467222 33838520.770770244 34033393.37140131 33986083.51612267 33712697.92020991 33229343.298938587
          32518838.988591682 31564004.32545214 30298416.04985488 28655650.90213483 26564236.70278816 23952701.27231104
          20370901.149540953 15368692.873315373 9952059.8631448 5126985.538539722 1092870.6730853675 -1950883.9596330386
          -10983196.430288278 3357538.173619762 3374784.40979254 -2067627.5423806838 -4105867.5035106493 -3826123.6993691414
          -2314584.3557279445 1679652.8751166074 9407490.34086818 17550300.260622393 22789454.853474885 26182730.522215664
          28787903.66963477 30694664.32429271 31992702.514749978 32815687.767601 33297289.60944019 33489045.314831793
          33442492.15834003 33173479.235934768 32697855.64358588 31998715.514179714 31059152.980602644 29813807.191863555
          28197317.296971336 26139354.28018535 23569589.12576498 20045078.20465008 15122877.887780508 9792881.364908483
          5044981.825786227 1075390.722736328 -1919680.491918628 -10797699.4308187 3300832.160664554 3317787.121709379
          -2032707.0454732617 -4036522.8386724056 -3761503.6729940167 -2275492.9635440614 1651284.9425400284 9248605.698120816
          17253890.369814675 22404560.02423798 25740526.10551642 28301700.05777569 30176257.120032195 31452372.531302284
          32261458.25169237 32734926.241308816 32923443.353260465 32877676.44065615 32613206.921493597 32145616.213770527
          31458283.976328015 30534589.86800714 29310276.927914415 27721088.19515634 25697882.452238534 23171518.481666546
          19706533.601737402 14867465.130748114 9627487.790579112 4959776.303110825 1057228.2732333348 -1887258.6941632824
          -10606215.520274743 3242295.9684753274 3258950.255037053 -1996659.483636774 -3964940.0705933603 -3694798.0322578973
          -2235139.895055577 1622001.4372262866 9084593.06080038 16947913.86303248 22007242.731288366 25284049.560402617
          27799804.24520982 29641118.345386412 30894603.420608833 31689341.001634136 32154412.61921934 32339586.612201743
          32294631.319418617 32034851.841598034 31575553.279468074 30900410.033159662 29993096.502803713 28790495.24561106
          27229488.81879253 25242162.13923198 22760600.12381325 19357062.48548977 14603808.937214948 9456756.145017192
          4871820.774924902 1038479.6305777888 -1853790.4843844362
        </DataArray>
        <DataArray type="Float64" Name="P2" format="ascii" RangeMin="-276013278.47997093" RangeMax="735914.8078955422">
          -235592069.69946802 -161990927.98295614 -111062699.76464571 -75236347.83845356 -46940834.99829647 -25921692.801123604
          -11924452.803884191 -4523346.972183892 -3292607.2716283663 -4566490.822492589 -4679254.745051533 -4280180.381164759
          -4018549.0726918234 -3800369.6312512644 -3531650.86846162 -3236442.6963144415 -2938795.0268012797 -2639406.434015291
          -2338975.492049633 -2040119.0395845715 -1745453.9153003716 -1456036.1570718698 -1172921.8027739027 -895511.7578972373
          -623206.927932641 -374179.84035298415 -166603.02263113702 125509.21913738176 628142.5788570535 503573.95085271174
          -1085919.77055081 -7188429.86910514 -20852047.628561907 -239845433.2293053 -164915501.40227383 -113067818.34483582
          -76594659.84860714 -47788301.705203645 -26389681.315773744 -12139736.081465846 -4605011.179222805 -3352051.785987499
          -4648933.94504575 -4763733.699683384 -4357454.473699763 -4091099.6908942526 -3868981.2522458313 -3595411.058733475
          -3294873.217845541 -2991851.8370703864 -2687058.10250832 -2381203.2002596525 -2076951.2132325913 -1776966.2243353464
          -1482323.3370762095 -1194097.6549634715 -911679.2674738038 -634458.2640838778 -380935.2578750917 -169610.86192884322
          127775.15497484681 639483.0240559581 512665.4423706149 -1105524.8930250583 -7318209.302597105 -21228509.10681157
          -243965811.709771 -167748635.53278744 -115010245.17800695 -77910503.07175401 -48609271.640353076 -26843037.76847492
          -12348288.340790264 -4684122.08107498 -3409637.7131049437 -4728799.4100955585 -4845571.345262229 -4432312.523631449
          -4161381.9502297197 -3935447.6707372814 -3657177.730834373 -3351476.8580292 -3043249.7798299706 -2733219.900023343
          -2422110.622395978 -2112631.7969575757 -1807493.2737178376 -1507788.6257207994 -1214611.4260104946 -927341.2862247856
          -645357.8180015346 -387479.4621408619 -172524.65944288854 129970.24327509438 650468.8991957958 521472.6792869506
          -1124517.0454837054 -7443931.071514139 -21593200.195202317 -247931356.68698186 -170475307.57976386 -116879680.47744246
          -79176900.20387594 -49399391.58292245 -27279358.22238538 -12549003.730068108 -4760260.195188741 -3465059.7069653785
          -4805663.732321735 -4924333.738181526 -4504357.596450227 -4229023.179033317 -3999416.4482845934 -3716623.3665578547
          -3405953.4755300144 -3092716.316877989 -2777647.0529629164 -2461480.846145933 -2146971.59372383 -1836873.1929933978
          -1532296.992493509 -1234354.3407630352 -942414.7653303188 -655847.7937237027 -393777.751296419 -175328.96340170107
          132082.84603305135 661041.9530804384 529948.9626880334 -1142795.520196591 -7564928.531186282 -21944187.105893884
          -251719859.68318665 -173080247.19829497 -118665654.73191449 -80386758.96437739 -50154236.57601575 -27696199.125138544
          -12740758.170054708 -4832999.1198718175 -3518007.3836974553 -4879096.443234807 -4999579.78018706 -4573186.21341138
          -4293644.561764928 -4060529.3364806375 -3773415.0487914407 -3457997.9815881047 -3139974.4177614 -2820090.753283773
          -2499093.38412767 -2179778.2883823197 -1864941.44413695 -1555711.1818363308 -1253215.8319252315 -956815.2880270365
          -665869.4437651278 -399794.85281556135 -178008.06885439248 134101.13175406447 671142.9726454951 538046.8221947079
          -1160257.9512234882 -7680524.05237088 -22279504.186009258 -255308997.42310584 -175548105.10981113 -120357644.3123152
          -81532950.41182035 -50869358.78952893 -28091104.293117832 -12922421.770263966 -4901910.2481412385 -3568168.753923572
          -4948664.848373956 -5070866.092255379 -4638392.80954988 -4354865.3242395 -4118426.2346680565 -3827218.139179369
          -3507303.710105125 -3184745.6197770135 -2860300.9066252084 -2534726.6090798858 -2210858.5715739876 -1891532.6385404577
          -1577893.2286799494 -1271084.760693116 -970458.001271245 -675363.7171056212 -405495.31204152695 -180546.18992424366
          136013.20747390477 680712.4383805945 545718.5416865839 -1176801.443717368 -7790036.503191699 -22597175.62209684
          -258676603.2527665 -177863639.72867373 -121945199.4261639 -82608395.62418774 -51540341.60169593 -28461634.777364217
          -13092872.5698683 -4966567.9827524 -3615234.0195607664 -5013939.290980489 -5137752.407698666 -4699574.666675771
          -4412307.364872283 -4172749.569525151 -3877700.3478713213 -3553566.14707404 -3226753.414296553 -2898029.173544251
          -2568160.4488225277 -2240020.490242847 -1916482.5479166724 -1598706.1357878132 -1287850.767800077 -983258.6470536774
          -684271.9766488264 -410843.9226094139 -182927.65095932956 137807.2642648309 689691.2490264719 552916.7404578588
          -1192323.8243087435 -7892789.530400039 -22895239.462942723 -261800960.41208407 -180011918.8122872 -123418082.36999317
          -83606159.35338534 -52162858.0306472 -28805401.12999988 -13251011.379664507 -5026555.36480256 -3658899.670575502
          -5074498.834907967 -5199807.3957245955 -4756337.240371522 -4465600.25619489 -4223149.025170905 -3924536.1292757713
          -3596486.9589837235 -3265726.9047689917 -2933032.25493434 -2599179.2977825347 -2267075.9872187683 -1939630.2771482354
          -1618015.6863985392 -1303405.733797284 -995134.6774183653 -692536.775335677 -415806.19262802525 -185137.0943742157
          139471.73297072723 698021.5029517792 559594.9995445985 -1206724.9932751565 -7988120.507979924 -23171773.577042136
          -264661111.5124115 -181978532.25373942 -124766413.42130725 -84519548.85506214 -52732732.39495135 -29120097.453854438
          -13395777.444650946 -5081470.0140491305 -3698872.808757257 -5129937.262047327 -5256614.807191341 -4808299.781684291
          -4514386.523021159 -4269286.534867777 -3967411.3208899675 -3635778.243962341 -3301404.666959504 -2965075.3590616155
          -2627575.089448831 -2291843.5811513932 -1960820.5571995468 -1635692.3570044157 -1317645.3199771238 -1006006.4310232046
          -700102.675048192 -420348.83650247904 -187159.69983645855 140995.44870755268 705647.3228872379 565708.5228308561
          -1219908.3513333334 -8075389.980202709 -23424923.044374645 -267237177.33313903 -183749811.2843477 -125980821.12686591
          -85342215.69771779 -53246003.83392751 -29403536.480124474 -13526164.580938065 -5130930.250781384 -3734875.6040675193
          -5179869.252322129 -5307779.807070867 -4855101.129464215 -4558327.080652652 -4310841.42390254 -4006027.9224802316
          -3671166.911423165 -3333538.72576877 -2993935.7732095607 -2653150.461438047 -2314151.127132895 -1979906.1069727703
          -1651613.287544334 -1330470.5554342489 -1015798.3447892294 -706917.0897559889 -424440.28107828693 -188981.40949988322
          142367.8209291571 712515.7061587685 571214.8187200895 -1231782.2688557417 -8153991.388624463 -23652928.372641813
          -269510676.98223853 -185313048.6138618 -127052593.23370108 -86068258.00712302 -53698990.09949431 -29653684.795904357
          -13641237.381442608 -5174581.243577714 -3766649.769778318 -5223936.589907975 -5352935.333830235 -4896405.527341052
          -4597106.696236381 -4347515.5743816495 -4040108.895642282 -3702399.0803993912 -3361898.549034084 -3019406.4505862277
          -2675721.934095688 -2333838.5891365865 -1996750.005283046 -1665664.2600489291 -1341789.4309480987 -1024440.170773566
          -712931.1323183418 -428051.17400700774 -190589.15426414536 143579.00415225208 718577.378484191 576074.3846544109
          -1242261.5614143491 -8223360.840713361 -23854153.834233895 -271464840.6632267 -186656713.48558787 -127973824.1328036
          -86692320.34768663 -54088349.87304974 -29868697.25658645 -13740147.045990232 -5212101.0139890695 -3793960.93331094
          -5261814.225281411 -5391748.31122605 -4931908.305763263 -4630439.323511461 -4379038.470367346 -4069402.8522276194
          -3729244.376089459 -3386274.948950039 -3041299.51430544 -2695123.01565174 -2350760.748434947 -2011228.008101069
          -1677741.6316724147 -1351518.4561712944 -1031868.1650864431 -718100.441906596 -431154.8805766286 -191971.07504141657
          144620.06448193802 723787.6277763332 580251.3755340052 -1251268.9315528097 -8282986.653192332 -24027115.14909278
          -273084905.8248869 -187770655.30577976 -128737554.4693019 -87209688.29729544 -54411141.77160243 -30046949.570056055
          -13822146.370489478 -5243206.122319449 -3816602.7749626897 -5293216.015281616 -5423925.530138641 -4961341.262208563
          -4658073.15416619 -4405171.975000328 -4093688.4936997844 -3751499.9981454858 -3406483.776218358 -3059449.5752070327
          -2711207.142400141 -2364789.768116141 -2023230.7426734949 -1687754.1650118253 -1359584.1340707561 -1038026.2136240986
          -722385.9674456645 -433727.95412252046 -193116.7322417322 145483.13731728605 728107.0936751207 583714.2366507114
          -1258736.3339370016 -8332418.38833195 -24170505.696778063 -274358387.4003278 -188646289.4577999 -129337898.53881851
          -87616374.74858235 -54664878.19229039 -30187068.030879162 -13886603.425285289 -5267656.856335223 -3834400.8048554356
          -5317899.961292622 -5449219.016093478 -4984477.5709255 -4679795.227456191 -4425714.6898367265 -4112778.6622182867
          -3768994.433120833 -3422369.2910643253 -3073716.7594467932 -2723850.361666263 -2375817.533235755 -2032665.709668291
          -1695624.6982659197 -1365924.3063306885 -1042866.8592594445 -725754.6824490351 -435750.56520802854 -194017.2968449927
          146161.57135535008 731502.4881082777 586436.2813701503 -1264606.2209026716 -8371275.099447648 -24283220.43500224
          -275275313.21474886 -189276759.1665286 -129770155.26356436 -87909195.08670099 -54847572.21678337 -30287955.421977945
          -13933013.470451212 -5285261.751152504 -3847215.653031171 -5335672.772240367 -5467430.704933251 -5001136.059834906
          -4695435.445670418 -4440505.752295761 -4126523.8695669044 -3781590.68841143 -3433807.0997569216 -3083989.3458569017
          -2732953.6689648903 -2383757.689345866 -2039459.0272648055 -1701291.6001302223 -1370489.3253506296 -1046352.1966431525
          -728180.2077249167 -437206.87549543317 -194665.71685421307 146650.05402510942 733947.2229689 588396.1943468376
          -1268832.6274713993 -8399252.513635527 -24364376.735295262 -275828416.47024715 -189657067.84899923 -130030898.93325296
          -88085828.6591844 -54957775.96296948 -30348812.193152092 -13961008.698276043 -5295881.284897848 -3854945.759574007
          -5346393.595493584 -5478416.265845642 -5011184.707506261 -4704869.857351521 -4449427.940626768 -4134815.182577347
          -3789188.9364929763 -3440706.5556633743 -3090185.9223948466 -2738444.9189936994 -2388547.3093194333 -2043556.8572315497
          -1704709.9594149322 -1373243.0125544625 -1048454.6038642818 -729643.3205585292 -438085.3434681836 -195056.85342422256
          146944.714019607 735421.9233095588 589578.4429353229 -1271382.0586134102 -8416128.904957926 -24413331.419719514
          -276013278.47997093 -189784177.25698516 -130118046.49264173 -88144864.35798764 -54994609.02406969 -30369152.165694118
          -13970365.457667192 -5299430.619184785 -3857529.3694427577 -5349976.7834654255 -5482087.936277102 -5014543.236290844
          -4708023.091919718 -4452409.976350914 -4137586.3627716214 -3791728.47571493 -3443012.5397139275 -3092256.9852238903
          -2740280.242700095 -2390148.129357474 -2044926.4624109636 -1705852.4671860652 -1374163.3690082822 -1049157.285000813
          -730132.3322868567 -438378.9511324942 -195187.5818038062 147043.19732895616 735914.8078955422 589973.5822672814
          -1272234.1471844972 -8421769.449617233 -24429693.394188367 -275828416.4702479 -189657067.84899926 -130030898.93325287
          -88085828.65918429 -54957775.96296918 -30348812.193151698 -13961008.69827611 -5295881.284898246 -3854945.7595739583
          -5346393.595493035 -5478416.265845262 -5011184.707506229 -4704869.857351528 -4449427.940626433 -4134815.1825762247
          -3789188.9364915076 -3440706.5556628895 -3090185.9223954584 -2738444.9189942987 -2388547.3093195762 -2043556.8572314554
          -1704709.9594148167 -1373243.012554542 -1048454.6038645454 -729643.3205587418 -438085.3434682484 -195056.85342418222
          146944.71401984955 735421.9233102398 589578.4429364182 -1271382.0586121853 -8416128.904957017 -24413331.419719525
          -275275313.2147492 -189276759.166528 -129770155.26356381 -87909195.0867008 -54847572.21678308 -30287955.42197766
          -13933013.470451599 -5285261.751153405 -3847215.653031616 -5335672.772240191 -5467430.704933088 -5001136.059834916
          -4695435.445670275 -4440505.752295159 -4126523.8695655577 -3781590.6884099133 -3433807.0997566665 -3083989.345857962
          -2732953.6689659464 -2383757.6893463377 -2039459.027264857 -1701291.6001300716 -1370489.3253505495 -1046352.196643184
          -728180.2077248689 -437206.8754952249 -194665.71685387293 146650.05402561542 733947.2229696688 588396.1943478611
          -1268832.627470233 -8399252.51363472 -24364376.735295713 -274358387.4003266 -188646289.45779806 -129337898.53881727
          -87616374.74858218 -54664878.192290686 -30187068.030879762 -13886603.42528634 -5267656.856336682 -3834400.804857046
          -5317899.9612940615 -5449219.016094353 -4984477.570925652 -4679795.227455682 -4425714.689835967 -4112778.662218029
          -3768994.433121338 -3422369.2910653614 -3073716.7594481083 -2723850.3616675893 -2375817.53323683 -2032665.7096688584
          -1695624.6982659032 -1365924.3063301926 -1042866.8592586443 -725754.6824481741 -435750.5652071968 -194017.2968441262
          146161.571356019 731502.4881082199 586436.2813694308 -1264606.220903394 -8371275.099448385 -24283220.435003676
          -273084905.8248858 -187770655.30577835 -128737554.46930104 -87209688.29729553 -54411141.77160334 -30046949.570057467
          -13822146.370490868 -5243206.122320827 -3816602.7749646283 -5293216.015283851 -5423925.530140072 -4961341.2622087635
          -4658073.154165392 -4405171.9749994455 -4093688.493700411 -3751499.998147683 -3406483.776220659 -3059449.5752088833
          -2711207.142401908 -2364789.768117803 -2023230.7426746392 -1687754.1650122413 -1359584.1340704353 -1038026.2136232959
          -722385.9674448979 -433727.95412198384 -193116.73224129583 145483.1373173316 728107.0936740637 583714.2366486671
          -1258736.3339390918 -8332418.388333768 -24170505.696779914 -271464840.66322905 -186656713.48559025 -127973824.13280506
          -86692320.34768735 -54088349.87305081 -29868697.256587934 -13740147.04599114 -5212101.013989302 -3793960.9333112696
          -5261814.225282027 -5391748.3112265635 -4931908.305763334 -4630439.323510794 -4379038.470366422 -4069402.8522276916
          -3729244.3760909475 -3386274.948952534 -3041299.514308346 -2695123.01565428 -2350760.7484368286 -2011228.0081024847
          -1677741.6316735286 -1351518.4561722407 -1031868.1650873839 -718100.4419077213 -431154.8805779938 -191971.0750429422
          144620.06448038795 723787.6277749508 580251.375532874 -1251268.9315537147 -8282986.653193089 -24027115.149093516
          -269510676.9822432 -185313048.61386696 -127052593.23370448 -86068258.00712444 -53698990.09949561 -29653684.795905862
          -13641237.381443053 -5174581.243576906 -3766649.7697771327 -5223936.589907056 -5352935.333829994 -4896405.527341338
          -4597106.696236474 -4347515.574381383 -4040108.895642049 -3702399.0803998588 -3361898.5490362 -3019406.4505895404
          -2675721.9340983494 -2333838.589138097 -1996750.0052842535 -1665664.2600503035 -1341789.4309497322 -1024440.170775446
          -712931.1323203515 -428051.1740090831 -190589.1542662736 143579.00415043478 718577.3784834001 576074.3846547236
          -1242261.5614134932 -8223360.840712325 -23854153.83423285 -267237177.3331411 -183749811.2843513 -125980821.12686892
          -85342215.69771978 -53246003.83392972 -29403536.480126765 -13526164.580938928 -5130930.250780771 -3734875.604066847
          -5179869.25232211 -5307779.807071512 -4855101.1294653695 -4558327.080653997 -4310841.42390386 -4006027.9224814186
          -3671166.911424419 -3333538.725770607 -2993935.7732117046 -2653150.4614394344 -2314151.127133423 -1979906.1069732967
          -1651613.287545048 -1330470.5554346682 -1015798.3447891965 -706917.0897556725 -424440.28107776586 -188981.40949914668
          142367.82092993677 712515.7061592361 571214.8187204679 -1231782.2688546514 -8153991.388622463 -23652928.372639302
          -264661111.51241183 -181978532.2537415 -124766413.42130996 -84519548.85506512 -52732732.39495496 -29120097.45385802
          -13395777.444652833 -5081470.014049404 -3698872.80875775 -5129937.262048652 -5256614.807192892 -4808299.781685853
          -4514386.523022922 -4269286.534869805 -3967411.320892211 -3635778.243964505 -3301404.6669610534 -2965075.3590623178
          -2627575.089448762 -2291843.5811509485 -1960820.557199438 -1635692.357004516 -1317645.3199764676 -1006006.4310215173
          -700102.6750458891 -420348.8364998127 -187159.69983351798 140995.44871007642 705647.3228880519 565708.5228305286
          -1219908.3513323725 -8075389.980199857 -23424923.044371113 -261800960.4120889 -180011918.81229237 -123418082.36999819
          -83606159.35339025 -52162858.0306524 -28805401.130004782 -13251011.37966748 -5026555.364803594 -3658899.67057622
          -5074498.834908976 -5199807.395725479 -4756337.240372121 -4465600.256195294 -4223149.025171388 -3924536.129276791
          -3596486.95898513 -3265726.904770027 -2933032.25493463 -2599179.2977820844 -2267075.987218013 -1939630.277148037
          -1618015.6863989525 -1303405.7337975537 -995134.6774181371 -692536.7753349992 -415806.19262709405 -185137.0943733754
          139471.73297102653 698021.5029509816 559594.99954379 -1206724.9932732475 -7988120.507975352 -23171773.57703774
          -258676603.25277585 -177863639.72868276 -121945199.42617184 -82608395.62419467 -51540341.6017026 -28461634.777370185
          -13092872.569871908 -4966567.982753661 -3615234.0195613448 -5013939.290981004 -5137752.4076986825 -4699574.666675139
          -4412307.364871137 -4172749.5695239333 -3877700.3478707885 -3553566.147074271 -3226753.4142969484 -2898029.1735444516
          -2568160.448822413 -2240020.4902426354 -1916482.5479169213 -1598706.1357886994 -1287850.7678013989 -983258.6470552243
          -684271.9766503796 -410843.92261095473 -182927.65096103863 137807.26426287118 689691.2490242776 552916.7404569619
          -1192323.8243052936 -7892789.530392997 -22895239.462936644 -255308997.4231143 -175548105.10982108 -120357644.31232463
          -81532950.4118286 -50869358.78953671 -28091104.293124493 -12922421.770267515 -4901910.2481420245 -3568168.7539242962
          -4948664.84837523 -5070866.092255718 -4638392.809548995 -4354865.324238295 -4118426.2346671443 -3827218.1391790737
          -3507303.7101052655 -3184745.619776903 -2860300.9066249053 -2534726.6090801903 -2210858.5715749506 -1891532.6385413809
          -1577893.22868061 -1271084.7606937678 -970458.0012721163 -675363.7171069161 -405495.3120429743 -180546.18992509745
          136013.20747338826 680712.4383791568 545718.5416859224 -1176801.4437126007 -7790036.503181984 -22597175.62208779
          -251719859.68319535 -173080247.1983056 -118665654.73192477 -80386758.96438657 -50154236.57602457 -27696199.12514602
          -12740758.170058144 -4832999.119871724 -3518007.3836975545 -4879096.443236083 -4999579.780187759 -4573186.213411195
          -4293644.561765017 -4060529.3364813877 -3773415.048792479 -3457997.981588967 -3139974.4177615293 -2820090.75328351
          -2499093.384128253 -2179778.288383699 -1864941.4441377914 -1555711.1818363143 -1253215.8319250536 -956815.2880271741
          -665869.4437658404 -399794.8528163021 -178008.0688538086 134101.13175542466 671142.9726451824 538046.8221944086
          -1160257.9512179524 -7680524.052359467 -22279504.1859977 -247931356.6869973 -170475307.57977724 -116879680.47745396
          -79176900.20388614 -49399391.58293251 -27279358.2223941 -12549003.730071945 -4760260.195187813 -3465059.706963479
          -4805663.732320771 -4924333.738181507 -4504357.596451149 -4229023.179035153 -3999416.448286954 -3716623.3665599846
          -3405953.475531631 -3092716.316879278 -2777647.0529639507 -2461480.8461466753 -2146971.5937241456 -1836873.1929930542
          -1532296.9924929645 -1234354.3407634397 -942414.765331859 -655847.7937256023 -393777.7512979071 -175328.96340201097
          132082.84603342897 661041.9530797558 529948.9626879696 -1142795.5201909295 -7564928.531174862 -21944187.105881743
          -243965811.70979 -167748635.53280213 -115010245.17801924 -77910503.0717653 -48609271.64036423 -26843037.768484488
          -12348288.340794504 -4684122.081073891 -3409637.713102264 -4728799.410093558 -4845571.345261705 -4432312.52363247
          -4161381.9502316103 -3935447.670739387 -3657177.730836059 -3351476.8580304994 -3043249.7798315794 -2733219.9000252183
          -2422110.622397332 -2112631.796958135 -1807493.273717839 -1507788.625720833 -1214611.4260115072 -927341.286226781
          -645357.8180035756 -387479.4621424154 -172524.6594438252 129970.24327436753 650468.8991943352 521472.6792866186
          -1124517.0454782413 -7443931.071502869 -21593200.19518989 -239845433.2293185 -164915501.40228593 -113067818.3448477
          -76594659.84861901 -47788301.70521514 -26389681.31578313 -12139736.081470046 -4605011.179222423 -3352051.785986789
          -4648933.945046167 -4763733.699683578 -4357454.473699326 -4091099.690893717 -3868981.2522454043 -3595411.0587330377
          -3294873.217845219 -2991851.8370705494 -2687058.1025093226 -2381203.2002618327 -2076951.2132355515 -1776966.22433795
          -1482323.337077844 -1194097.654964049 -911679.2674736264 -634458.264083636 -380935.2578749316 -169610.8619283665
          127775.15497510896 639483.0240545444 512665.44236968074 -1105524.8930197412 -7318209.30258526 -21228509.10679841
          -235592069.69948703 -161990927.9829712 -111062699.76465708 -75236347.83846274 -46940834.99830623 -25921692.801133074
          -11924452.803888798 -4523346.972183485 -3292607.2716272203 -4566490.82249245 -4679254.74505162 -4280180.381164715
          -4018549.0726917204 -3800369.63125114 -3531650.868461475 -3236442.6963145193 -2938795.0268020667 -2639406.4340162184
          -2338975.492049075 -2040119.0395826215 -1745453.915298841 -1456036.1570718326 -1172921.802775695 -895511.7579004149
          -623206.9279359794 -374179.8403558098 -166603.0226333272 125509.2191357594 628142.5788557411 503573.9508531811
          -1085919.7705453578 -7188429.869095508 -20852047.628552902
        </DataArray>
        <DataArray type="Float64" Name="displacement" NumberOfComponents="3" format="ascii" RangeMin="0.00000446214609457992" RangeMax="0.000006985804775001506">
          0.00000446214609457992 0 0 0.000004906996486363564 0 0
          0.000005234581252154017 0 0 0.000005471072968693915 0 0
          0.000005642644212725897 0 0 0.000005763305120079269 0 0
          0.000005847065826583335 0 0 0.000005902130880925896 0 0
          0.0000059367048317947495 0 0 0.000005955377404122157 0 0
          0.000005962738322840381 0 0 0.000005961421809020672 0 0
          0.000005954062083734288 0 0 0.000005942165044819298 0 0
          0.0000059272365901137766 0 0 0.00000591016537630598 0 0
          0.000005891840060084166 0 0 0.000005872824284720542 0 0
          0.000005853681693487313 0 0 0.000005834840171915613 0 0
          0.000005816727605536573 0 0 0.000005799776916923913 0 0
          0.0000057844210286513485 0 0 0.000005771240844850722 0 0
          0.000005760817269653876 0 0 0.000005754055124174029 0 0
          0.0000057518592295244 0 0 0.000005755768230452626 0 0
          0.00000576732077170634 0 0 0.000005789071136294021 0 0
          0.00000582357360722415 0 0 0.000005875500214844832 0 0
          0.000005949522989504179 0 0 0.0000045380631511827834 2.047820164762822e-7 0
          0.000004990482038396435 2.251976098547976e-7 0 0.000005323640192109985 2.402315122622613e-7 0
          0.000005564155478161284 2.5108486613663316e-7 0 0.0000057386457623881835 2.589588139158732e-7 0
          0.000005861359543114407 2.6449632510499426e-7 0 0.000005946545318663669 2.6834036920900903e-7 0
          0.000006002547226426719 2.7086747895211644e-7 0 0.0000060377094037943 2.724541870585153e-7 0
          0.0000060566996633271336 2.7331113054165817e-7 0 0.00000606418581758594 2.7364894641499787e-7 0
          0.0000060628469051592125 2.735885274264588e-7 0 0.000006055361964635447 2.732507663239658e-7 0
          0.0000060432625145582375 2.7270477352871013e-7 0 0.000006028080073471184 2.7201965946188315e-7 0
          0.000006010718417289589 2.7123620739341567e-7 0 0.000005992081321928759 2.703952005932387e-7 0
          0.000005972742020247902 2.695225064362542e-7 0 0.000005953273745106221 2.686439922973644e-7 0
          0.000005934111661897363 2.6777929519876524e-7 0 0.000005915690936014974 2.6694805216265274e-7 0
          0.000005898451855593401 2.6617013137705577e-7 0 0.000005882834708766992 2.6546540103000323e-7 0
          0.000005869430282923534 2.648605206518976e-7 0 0.000005858829365450814 2.643821497731413e-7 0
          0.000005851952171703794 2.6407181350028997e-7 0 0.000005849718917037437 2.639710369398995e-7 0
          0.000005853694424046921 2.641504333725018e-7 0 0.000005865443515327426 2.646806160786288e-7 0
          0.000005887563931372443 2.656788091952606e-7 0 0.000005922653412675473 2.6726223685937717e-7 0
          0.000005975463477522361 2.6964531334063237e-7 0 0.000006050745644198957 2.730424529086803e-7 0
          0.000004601676173616628 4.1904300020749295e-7 0 0.000005060436914585382 4.6081918567307724e-7 0
          0.000005398265165743267 4.915828810271096e-7 0 0.0000056421519130980385 5.137919697300398e-7 0
          0.000005819088142657443 5.299043352423172e-7 0 0.000005943522083337974 5.412356784009822e-7 0
          0.000006029901964056123 5.491017000430747e-7 0 0.000006086688887476468 5.542728945953981e-7 0
          0.000006122343956263578 5.575197564847554e-7 0 0.000006141600414783648 5.592733097217661e-7 0
          0.000006149191507402877 5.599645783170502e-7 0 0.000006147833826559563 5.598409436600651e-7 0
          0.000006140243964692014 5.591497871402691e-7 0 0.000006127974908648769 5.580325285889856e-7 0
          0.0000061125796452783785 5.566305878375379e-7 0 0.00000609497461931889 5.550274192051906e-7 0
          0.00000607607627550836 5.533064770112078e-7 0 0.000006056465882088837 5.515206933566056e-7 0
          0.000006036724707302372 5.497230003423995e-7 0 0.0000060172940165427815 5.479535809731146e-7 0
          0.000005998615075203881 5.462526182532747e-7 0 0.000005981134343229019 5.446607682193053e-7 0
          0.000005965298280561536 5.432186869076314e-7 0 0.000005951705956045453 5.419809273976667e-7 0
          0.000005940956438524785 5.410020427688248e-7 0 0.000005933982842619686 5.403670053518898e-7 0
          0.000005931718282950306 5.401607874776464e-7 0 0.000005935749517261602 5.405278842606984e-7 0
          0.000005947663303298526 5.416127908156495e-7 0 0.0000059700937957954066 5.436553814972416e-7 0
          0.000006005675149486572 5.468955306602174e-7 0 0.000006059225487821743 5.517719916694961e-7 0
          0.000006135562934250646 5.587235178899977e-7 0 0.000004651811426245655 6.416150262145537e-7 0
          0.0000051155703645632314 7.055803670460919e-7 0 0.000005457079253837222 7.526840036429574e-7 0
          0.000005703623146813408 7.866893086422447e-7 0 0.000005882487096237574 8.113596546810493e-7 0
          0.000006008276744451179 8.287095687329234e-7 0 0.000006095597733795689 8.407535777714196e-7 0
          0.000006153003350632189 8.486714194406154e-7 0 0.000006189046881321765 8.536428313845873e-7 0
          0.00000620851313891846 8.563277732774642e-7 0 0.0000062161869364763255 8.573862047933752e-7 0
          0.000006214814463702813 8.571969023743525e-7 0 0.000006207141910305375 8.561386424624287e-7 0
          0.000006194739182921143 8.544279591334244e-7 0 0.0000061791761881872465 8.522813864631605e-7 0
          0.000006161379355505312 8.49826705002117e-7 0 0.000006142275114276966 8.47191695300774e-7 0
          0.000006122451065660581 8.444574040091496e-7 0 0.00000610249481081453 8.417048777772625e-7 0
          0.0000060828524227182046 8.389956425570762e-7 0 0.000006063969974350994 8.363912243005541e-7 0
          0.0000060462987898364245 8.339538732394486e-7 0 0.000006030290193298014 8.317458396055118e-7 0
          0.000006016549780433633 8.298506519995327e-7 0 0.000006005683146941144 8.283518390222997e-7 0
          0.000005998633573722602 8.273795055179858e-7 0 0.000005996344341680064 8.270637563307639e-7 0
          0.000006000419496280917 8.27625834236908e-7 0 0.000006012463082992561 8.292869820126907e-7 0
          0.000006035137955659847 8.324144817516745e-7 0 0.000006071106968127635 8.373756155474217e-7 0
          0.000006125240737290921 8.448421778258498e-7 0 0.000006202409880044706 8.55485963012877e-7 0
          0.000004687222820246743 8.71851591754106e-7 0 0.000005154512071592208 9.58770198615296e-7 0
          0.000005498620659073437 0.0000010227764622880426 0 0.000005747041339847678 0.000001068984200699645 0
          0.000005927266871072185 0.000001102507231777402 0 0.000006054014078906621 0.0000011260829735627425 0
          0.000006141999789510656 0.0000011424488440970945 0 0.000006199842400180799 0.0000011532079170318142 0
          0.000006236160308213564 0.000001159963266018259 0 0.0000062557747505170005 0.0000011636116700732672 0
          0.000006263506963999154 0.0000011650499082136787 0 0.000006262124043429349 0.0000011647926766832326 0
          0.000006254393083576905 0.0000011633546717256694 0 0.000006241895941817559 0.000001161030128312069 0
          0.00000622621447552705 0.0000011581132814135102 0 0.000006208282166447154 0.0000011547777642396057 0
          0.000006189032496319648 0.0000011511972099999663 0 0.00000616905753935097 0.0000011474817480524488 0
          0.000006148949369747555 0.0000011437415077549089 0 0.000006129157456169434 0.0000011400600929772124 0
          0.0000061101312672766395 0.0000011365211075892235 0 0.000006092325562847079 0.0000011332091396405088 0
          0.000006076195102658663 0.0000011302087771806331 0 0.00000606235009243875 0.000001127633522139222 0
          0.0000060514007379146954 0.0000011255968764458997 0 0.0000060442975006088775 0.0000011242756316514323 0
          0.000006041990842043676 0.0000011238465793065868 0 0.000006046097018303124 0.000001124610352748749 0
          0.000006058232285471257 0.000001126867585315305 0 0.0000060810797680698645 0.0000011311173542797082 0
          0.000006117322590620742 0.000001137858736915413 0 0.000006171868447044969 0.000001148004593762927 0
          0.000006249625031263626 0.0000011624677853627584 0 0.000004706695780527446 0.000001109052548359674 0
          0.000005175926374406934 0.0000012196187311281497 0 0.000005521464553164318 0.0000013010389068892194 0
          0.000005770917291989292 0.0000013598181882767045 0 0.0000059518915660715495 0.000001402461687924426 0
          0.000006079165342289281 0.0000014324515815645257 0 0.000006167516587520687 0.0000014532700449291457 0
          0.00000622559950399722 0.0000014669562931038402 0 0.00000626206829395034 0.0000014755495411741632 0
          0.000006281764224006834 0.000001480190551012157 0 0.000006289528560793491 0.0000014820200844898641 0
          0.000006288139894911721 0.0000014816928690702559 0 0.000006280376816962936 0.0000014798636322163045 0
          0.00000626782775611325 0.0000014769066601569743 0 0.000006252081141528782 0.00000147319623912123 0
          0.0000062340743330799134 0.0000014689532419679644 0 0.000006214744690637019 0.0000014643985415560706 0
          0.000006194686748165318 0.0000014596722296696712 0 0.000006174495039630031 0.000001454914398092889 0
          0.000006154620900998485 0.0000014502313964450896 0 0.000006135515668238003 0.0000014457295743456389 0
          0.000006117635990415621 0.0000014415165333551895 0 0.0000061014385165983755 0.000001437699875034393 0
          0.00000608753598759939 0.000001434423981300409 0 0.0000060765411442317985 0.0000014318332340703955 0
          0.000006069408396688688 0.0000014301525238208502 0 0.000006067092155163156 0.0000014296067410282702 0
          0.000006071215390438258 0.000001430578311064249 0 0.000006083401073297058 0.0000014334496593003803 0
          0.000006106343475240959 0.000001438855644842484 0 0.000006142736867771368 0.0000014474311267963824 0
          0.000006197509333711812 0.000001460337323789524 0 0.000006275588955885824 0.0000014787354544493588 0
          0.000004709165395785069 0.0000013519249937490974 0 0.00000517864219615158 0.000001486704167352331 0
          0.000005524361679671286 0.0000015859546228610559 0 0.000005773945306983893 0.0000016576060335539305 0
          0.000005955014538729105 0.0000017095880727096152 0 0.000006082355095821899 0.0000017461454809510902 0
          0.000006170752699177257 0.0000017715229989013378 0 0.000006228866091908555 0.0000017882064112473787 0
          0.000006265354017129181 0.0000017986815026762354 0 0.000006285060281690835 0.0000018043388515595208 0
          0.000006292828692445227 0.0000018065690362688499 0 0.0000062914392979273335 0.0000018061701636410799 0
          0.000006283672146672128 0.000001803940340513069 0 0.000006271116501298564 0.0000018003358184019335 0
          0.000006255361624425589 0.0000017958128488247897 0 0.000006237345367758697 0.0000017906406737925926 0
          0.000006218005583003384 0.0000017850885353162968 0 0.000006197937116078356 0.00000177932720400966 0
          0.000006177734812902324 0.000001773527450486439 0 0.000006157850246259744 0.0000017678189139677044 0
          0.0000061387349889350766 0.000001762331233674526 0 0.000006120845929600287 0.0000017571955749330436 0
          0.000006104639956927344 0.0000017525431030693956 0 0.000006090730133236037 0.0000017485498183305908 0
          0.0000060797295208461545 0.0000017453917209636356 0 0.00000607259303073225 0.0000017433429504188985 0
          0.000006070275573868877 0.0000017426776461467477 0 0.00000607440097261599 0.0000017438619812053248 0
          0.000006086593049333558 0.0000017473621286527715 0 0.000006109547489214102 0.000001753951975978854 0
          0.0000061459599774501515 0.0000017644054106733392 0 0.0000062007611826428734 0.0000017801379477070102 0
          0.000006278881773393437 0.0000018025651020506512 0 0.000004693689594107489 0.0000015989206689961117 0
          0.000005161623545743431 0.000001758323895817045 0 0.0000055062068860802705 0.000001875707334582854 0
          0.000005754970302932587 0.000001960449403890776 0 0.000005935444484114955 0.00000202192852233805 0
          0.000006062366560003427 0.0000020651649414533866 0 0.000006150473660974046 0.000002095178912765498 0
          0.000006208396074781355 0.000002114910371946199 0 0.000006244764089179897 0.0000021272992546673044 0
          0.000006264405592745448 0.000002133990196918614 0 0.000006272148474053779 0.000002136627834689927 0
          0.0000062707636455242 0.00000213615608833438 0 0.0000062630220195760175 0.0000021335188782051125 0
          0.0000062505076360103294 0.000002129255812626811 0 0.0000062348045346282305 0.0000021239064999241643 0
          0.000006216847485058932 0.0000021177893724201693 0 0.000006197571256931641 0.0000021112228624378202 0
          0.000006177568741313901 0.0000021044089402530265 0 0.000006157432829273255 0.0000020975495761416973 0
          0.00000613761360958367 0.000002090798094312676 0 0.0000061185611710191125 0.000002084307818974805 0
          0.0000061007309007713766 0.0000020782338792602424 0 0.000006084578186032252 0.000002072731404301143 0
          0.0000060707140744055325 0.00000206800854945671 0 0.000006059749613495003 0.000002064273470086145 0
          0.000006052636576136793 0.0000020618503907103404 0 0.000006050326735167039 0.000002061063535850192 0
          0.000006054438576553642 0.0000020624642480294607 0 0.000006066590586264518 0.000002066603869771909 0
          0.000006089469590621048 0.0000020743976772271665 0 0.0000061257624159446234 0.0000020867609465448625 0
          0.0000061803835271053804 0.0000021053678062118206 0 0.0000062582473889734535 0.0000021318923847148634 0
          0.000004659524234993094 0.0000018483243141963777 0 0.000005124052096137204 0.0000020325916550378185 0
          0.000005466127214886106 0.0000021682848561833727 0 0.00000571307988322148 0.000002266245205420257 0
          0.000005892240393125007 0.0000023373139905356884 0 0.000006018238603424122 0.0000023872945344485017 0
          0.000006105704372946258 0.0000024219901600775337 0 0.0000061632051695950865 0.000002444799381614096 0
          0.000006199308461274279 0.000002459120713249498 0 0.000006218806994366328 0.0000024668553254088197 0
          0.000006226493515253722 0.000002469904388517141 0 0.0000062251187668886625 0.0000024693590579852328 0
          0.00000621743349222335 0.000002466310489223867 0 0.000006205010200835681 0.000002461382460013896 0
          0.000006189421402303548 0.0000024551987481361727 0 0.000006171595062069508 0.0000024481274557839054 0
          0.000006152459145576119 0.000002440536685150298 0 0.000006132602228237784 0.0000024326599103400707 0
          0.000006112612885468904 0.0000024247306054579414 0 0.000006092937929847971 0.000002416926010606347 0
          0.000006074024173953482 0.0000024094233658877254 0 0.0000060563236902145756 0.000002402401997864279 0
          0.0000060402885510603995 0.000002396041233098211 0 0.0000060265253562802035 0.000002390581695542291 0
          0.00000601564070566324 0.00000238626400914929 0 0.000006008579444092671 0.000002383462971791828 0
          0.0000060062864164516645 0.0000023825533813425237 0 0.0000060103683277513335 0.000002384172580111019 0
          0.000006022431883002794 0.0000023889579104069577 0 0.0000060451443511229 0.000002397967415443095 0
          0.000006081173001028504 0.000002412259138432187 0 0.0000061353965252077185 0.0000024337683426098307 0
          0.0000062126936161486614 0.0000024644302912116205 0 0.000004606094778947218 0.0000020983003211355694 0
          0.000005065296029543039 0.0000023074888371839734 0 0.000005403448668956978 0.000002461533820173686 0
          0.000005647569600386694 0.0000025727427842519027 0 0.000005824675727029848 0.0000026534232435658193 0
          0.000005949229151230637 0.0000027101633895116833 0 0.0000060356919753332624 0.0000027495514134857426 0
          0.000006092533426492618 0.0000027754454606004327 0 0.000006128222731863595 0.0000027917036759681906 0
          0.00000614749768075168 0.0000028004843531757166 0 0.000006155096062462356 0.0000028039457858097117 0
          0.0000061537370779507765 0.0000028033267022314556 0 0.00000614613992817209 0.0000027998658308022266 0
          0.000006133859091178408 0.0000027942713119213155 0 0.000006118449045021842 0.0000027872512859880125 0
          0.000006100827114425784 0.00000277922363905418 0 0.000006081910624113627 0.0000027706062571716795 0
          0.000006062281400470762 0.0000027616641905728468 0 0.000006042521269882583 0.000002752662489490013 0
          0.000006023071921453202 0.0000027438023648043035 0 0.000006004375044286739 0.000002735285027396842 0
          0.00000598687752702473 0.000002727314056791074 0 0.000005971026258308713 0.000002720093032510446 0
          0.000005957420882218486 0.000002713895121614166 0 0.000005946661042833843 0.0000027089934911614424 0
          0.000005939680750766976 0.000002705813628438481 0 0.000005937414016630084 0.000002704781020731488 0
          0.000005941449121799064 0.000002706619207498731 0 0.000005953374347649821 0.00000271205172819848 0
          0.0000059758263782754824 0.00000272227972074579 0 0.000006011441897769176 0.0000027385043230557155 0
          0.00000606504365602216 0.000002762922532396287 0 0.0000061414544029256986 0.0000027977313460355287 0
          0.000004533081299298648 0.000002346901760594143 0 0.00000498500352443461 0.000002580874415350292 0
          0.0000053177959396148315 0.0000027531702674494683 0 0.000005558047189782081 0.000002877554994916888 0
          0.00000573234591987912 0.000002967794275777767 0 0.000005854924986334478 0.0000030312568540728496 0
          0.000005940017245576679 0.000003075311473842881 0 0.000005995957674864724 0.0000031042733837039985 0
          0.000006031081251457611 0.00000312245783227234 0 0.000006050050663626291 0.0000031322788224279923 0
          0.0000060575285996417165 0.0000031361503570510426 0 0.0000060561911570638304 0.0000031354579259794823 0
          0.0000060487144334525785 0.0000031315870190513012 0 0.000006036628266061942 0.0000031253296753912603 0
          0.000006021462492145898 0.0000031174779341241196 0 0.000006004119895461308 0.000003108499191409032 0
          0.000005985503259765036 0.0000030988608434051494 0 0.000005966185188625529 0.000003088859342841683 0
          0.000005946738285611245 0.000003078791142447845 0 0.000005927597238394509 0.000003068881292072984 0
          0.000005909196734647644 0.0000030593548415664472 0 0.0000058919765791599735 0.0000030504394900507986 0
          0.000005876376576720812 0.0000030423629366486003 0 0.000005862986866155954 0.000003035430712577542 0
          0.000005852397586291197 0.000003029948349055313 0 0.000005845527942275951 0.0000030263917440508775 0
          0.000005843297139259628 0.0000030252367955332005 0 0.000005847268281986843 0.0000030272927661285 0
          0.000005859004475202209 0.000003033368918462991 0 0.000005881100607619121 0.000003044808698305217 0
          0.000005916151567950971 0.000003062955551423718 0 0.0000059689036583023705 0.000003090266769896458 0
          0.0000060441031807779265 0.0000031291996458013956 0 0.000004440373508605974 0.0000025921138137248812 0
          0.000004883053298345156 0.0000028505327047966964 0 0.000005209039647731862 0.0000030408305970104796 0
          0.000005444377427095638 0.0000031782114519309956 0 0.0000056151115067660336 0.000003277879231123013 0
          0.000005735183661545717 0.0000033479725893604646 0 0.000005818535666237355 0.000003396630181417285 0
          0.000005873332036271421 0.0000034286181273481618 0 0.000005907737287078382 0.0000034487025472077833 0
          0.000005926318748496426 0.0000034595496668761235 0 0.0000059336437503637404 0.0000034638257122331563 0
          0.000005932333660338891 0.000003463060933674585 0 0.000005925009846080444 0.000003458785581596111 0
          0.000005913170857551778 0.0000034518744499881722 0 0.0000058983152447162694 0.0000034432023328412044 0
          0.000005881327328152638 0.000003433285461409944 0 0.000005863091428439596 0.00000342264006694913 0
          0.0000058441684386095935 0.000003411593576548983 0 0.000005825119251695076 0.0000034004734172997225 0
          0.000005806369665403448 0.000003389528153002813 0 0.000005788345477442114 0.000003379006347459715 0
          0.000005771477497983339 0.0000033691594905499303 0 0.000005756196537199387 0.0000033602390721529584 0
          0.000005743080664759751 0.0000033525825463979796 0 0.000005732707950333921 0.000003346527367414177 0
          0.000005725978800052944 0.000003342599156563292 0 0.000005723793620047863 0.000003341323535207067 0
          0.000005727683547406437 0.0000033435943204057523 0 0.000005739179719216419 0.0000033503053292195968 0
          0.0000057608239551232074 0.000003362940375071512 0 0.0000057951580747721995 0.000003382983271384411 0
          0.000005846831311816535 0.000003413148056234622 0 0.000005920492899909349 0.000003456148767698472 0
          0.000004328152984185808 0.0000028318871003315873 0 0.000004759645030808832 0.000003114210013867461 0
          0.000005077392803190566 0.000003322110663648665 0 0.000005306782945725024 0.0000034721993938664785 0
          0.000005473202102806217 0.0000035810865487121783 0 0.000005590239702012729 0.0000036576636171883985 0
          0.0000056714851709231414 0.000003710822088297774 0 0.000005724896685072988 0.0000037457689532727236 0
          0.000005758432419997804 0.000003767711203345665 0 0.0000057765442764736445 0.0000037795616931281875 0
          0.0000057836841552765575 0.0000037842332772318812 0 0.000005782407174851445 0.0000037833977558427237 0
          0.000005775268453643202 0.000003778726929146694 0 0.00000576372866911137 0.000003771176510509407 0
          0.000005749248498715485 0.000003761702213296479 0 0.0000057326899138064545 0.0000037508680207031445 0
          0.000005714914885735186 0.0000037392379159246365 0 0.000005696470132215289 0.0000037271696134055093 0
          0.000005677902370960374 0.0000037150208275903187 0 0.000005659626638591658 0.000003703063114696713 0
          0.000005642057971730361 0.000003691568030942341 0 0.000005625616292783703 0.0000036808103292882234 0
          0.000005610721524158909 0.00000367106476269538 0 0.000005597937126105488 0.0000036627000001591 0
          0.000005587826558872956 0.000003656084710674672 0 0.00000558126747283813 0.00000365179313613923 0
          0.000005579137518377834 0.0000036503995184499066 0 0.000005582929136509189 0.0000036528803536963322 0
          0.000005594134768249311 0.0000036602121379681345 0 0.0000056152319944283215 0.0000036740159390090965 0
          0.000005648698395876342 0.000003695912824563001 0 0.000005699065707248338 0.0000037288678841168545 0
          0.000005770865663199278 0.000003775846207157661 0 0.000004196831622359694 0.000003064171433387403 0
          0.0000046152316818494135 0.0000033696517636400445 0 0.00000492333860504233 0.0000035946053756564658 0
          0.000005145768775039438 0.0000037570050700344545 0 0.000005307138574941726 0.0000038748236473718005 0
          0.000005420625112767319 0.000003957681917268914 0 0.000005499405496534335 0.000004015200689326205 0
          0.000005551196441170793 0.000004053014056013816 0 0.0000055837146616047054 0.00000407675610980189 0
          0.000005601276982593615 0.000004089578630960689 0 0.000005608200228895056 0.000004094633399760478 0
          0.000005606961993590327 0.0000040937293450853245 0 0.000005600039869760727 0.000004088675395819296 0
          0.000005588850216156664 0.0000040805056573097005 0 0.000005574809391528544 0.000004070254234903843 0
          0.000005558753213980827 0.000004058531372278296 0 0.0000055415175016179775 0.000004045947313109633 0
          0.00000552363238408129 0.0000040328891132173425 0 0.000005505627991012057 0.000004019743828420914 0
          0.000005487906766321742 0.00000400680528922107 0 0.0000054708711539218085 0.000003994367326118531 0
          0.0000054549283352691075 0.000003982727228568905 0 0.000005440485491820487 0.0000039721822860277956 0
          0.000005428088987764489 0.000003963131407407785 0 0.000005418285187289658 0.00000395597350162145 0
          0.000005411925111805883 0.000003951329912512916 0 0.0000054098597827230575 0.00000394982198392631 0
          0.000005413536358604669 0.000003952506308627038 0 0.0000054244019980142005 0.000003960439479380503 0
          0.00000544485910900257 0.000003975375531321623 0 0.000005477310099620689 0.000003999068499585306 0
          0.000005526149206249206 0.0000040347266838606405 0 0.000005595770665268771 0.000004085558383836706 0
          0.000004047122451613529 0.0000032869716628286705 0 0.000004450597364806383 0.000003614663899024042 0
          0.000004747713513023445 0.000003855974205651315 0 0.000004962209164961213 0.0000040301822110051355 0
          0.000005117822589316183 0.000004156567543380151 0 0.000005227260840958827 0.0000042454505550208435 0
          0.000005303230974759618 0.000004307151598171698 0 0.000005353174435372058 0.0000043477144281178555 0
          0.000005384532667449651 0.00000437318280014446 0 0.0000054014685061899825 0.000004386937664913385 0
          0.000005408144786790641 0.000004392359973086507 0 0.000005406950721754662 0.000004391390183320031 0
          0.000005400275523585082 0.000004385968754270164 0 0.0000053894850267527805 0.0000043772049825434604 0
          0.0000053759450657286406 0.000004366208164746478 0 0.000005360461643354906 0.00000435363291623476 0
          0.000005343840762473818 0.000004340133852363852 0 0.00000532659364196824 0.00000432612617232814 0
          0.000005309231500721034 0.000004312025075322006 0 0.000005292142426684291 0.000004298145756676569 0
          0.0000052757145078101035 0.000004284803411722944 0 0.000005260340400598467 0.000004272316946252626 0
          0.000005246412761549375 0.000004261005266057106 0 0.0000052344584649749685 0.000004251296285278986 0
          0.000005225004385187389 0.0000042436179180608656 0 0.000005218871186002746 0.000004238636687034689 0
          0.000005216879531237153 0.000004237019114832402 0 0.000005220424956485155 0.000004239898620570572 0
          0.000005230902997341301 0.000004248408623365766 0 0.000005250630363274939 0.00000426443069672306 0
          0.000005281923763755416 0.000004289846414147528 0 0.000005329020684179838 0.00000432809735532657 0
          0.000005396158609945309 0.000004382625099947584 0 0.000003879964469210353 0.000003498365112274502 0
          0.000004266774689588428 0.000003847132063822494 0 0.000004551619072750368 0.000004103961645739527 0
          0.000004757255427535434 0.0000042893734079098664 0 0.000004906441562782885 0.000004423886900217777 0
          0.000005011359694868723 0.000004518486202826401 0 0.000005084192040168946 0.000004584155395898882 0
          0.000005132072689929961 0.000004627326923887292 0 0.000005162135735398176 0.000004654433231243697 0
          0.000005178372074514267 0.000004669072706106211 0 0.000005184772605218913 0.000004674843736612946 0
          0.000005183627858557811 0.000004673811577217247 0 0.000005177228365576665 0.000004668041482372461 0
          0.000005166883547791921 0.000004658714090351631 0 0.000005153902826720032 0.000004647010039427798 0
          0.000005139058914930821 0.000004633626044923369 0 0.00000512312452499411 0.00000461925882216075 0
          0.000005106589760959188 0.0000046043502728431675 0 0.000005089944726875341 0.0000045893422986738555 0
          0.000005073561481528302 0.000004574570365991752 0 0.000005057812083703798 0.000004560369941135801 0
          0.000005043072972041085 0.0000045470804395343956 0 0.000005029720585179415 0.0000045350412766159336 0
          0.000005018260035982383 0.000004524707886762297 0 0.0000050091964373135825 0.000004516535704355364 0
          0.0000050033165571756465 0.000004511234117780959 0 0.000005001407163571212 0.000004509512515424904 0
          0.000005004806152397199 0.000004512577209449798 0 0.000005014851419550536 0.000004521634512018237 0
          0.000005033763987630371 0.0000045386870053796466 0 0.000005063764879235852 0.000004565737271783445 0
          0.000005108916559235815 0.000004606448227599026 0 0.000005173281492499097 0.000004664482789195791 0
          0.0000036965746561946167 0.0000036965746561966657 0 0.000004065101963275248 0.000004065101963277261 0
          0.000004336482934959795 0.000004336482934961773 0 0.000004532399712941383 0.000004532399712943325 0
          0.000004674534438913139 0.000004674534438915047 0 0.00000477449352645672 0.000004774493526458593 0
          0.000004843883389153782 0.000004843883389155623 0 0.0000048895009193742784 0.000004889500919376088 0
          0.000004918143009488161 0.000004918143009489936 0 0.000004933611924258427 0.000004933611924260167 0
          0.000004939709928448075 0.000004939709928449783 0 0.000004938619289209279 0.0000049386192892109565 0
          0.000004932522273694217 0.000004932522273695863 0 0.000004922666412500242 0.000004922666412501855 0
          0.00000491029923622471 0.000004910299236226286 0 0.000004896156934522138 0.000004896156934523676 0
          0.000004880975697047039 0.000004880975697048545 0 0.0000048652224626649335 0.0000048652224626664065 0
          0.0000048493641702413366 0.000004849364170242779 0 0.000004833755292887761 0.000004833755292889169 0
          0.0000048187503037157125 0.000004818750303717084 0 0.000004804707848672732 0.000004804707848674064 0
          0.000004791986573706352 0.000004791986573707651 0 0.000004781067717092056 0.00000478106771709332 0
          0.000004772432517105321 0.000004772432517106552 0 0.000004766830554491516 0.000004766830554492713 0
          0.0000047650114099960086 0.000004765011409997175 0 0.0000047682497427308765 0.0000047682497427320115 0
          0.000004777820211808192 0.000004777820211809295 0 0.0000047958388613092874 0.0000047958388613103556 0
          0.000004824421735315493 0.000004824421735316526 0 0.000004867439282846376 0.00000486743928284737 0
          0.000004928761952921498 0.000004928761952922456 0 0.000003498365112272621 0.000003879964469212577 0
          0.000003847132063820649 0.000004266774689590618 0 0.000004103961645737717 0.000004551619072752524 0
          0.000004289373407908092 0.0000047572554275375554 0 0.000004423886900216037 0.000004906441562784974 0
          0.000004518486202824697 0.000005011359694870778 0 0.000004584155395897213 0.000005084192040170969 0
          0.000004627326923885658 0.000005132072689931953 0 0.000004654433231242099 0.000005162135735400136 0
          0.000004669072706104649 0.000005178372074516195 0 0.00000467484373661142 0.000005184772605220808 0
          0.000004673811577215755 0.0000051836278585596786 0 0.000004668041482371 0.000005177228365578501 0
          0.0000046587140903502024 0.000005166883547793727 0 0.0000046470100394264085 0.000005153902826721806 0
          0.000004633626044922018 0.000005139058914932563 0 0.000004619258822159435 0.000005123124524995821 0
          0.000004604350272841891 0.000005106589760960867 0 0.000004589342298672614 0.000005089944726876989 0
          0.000004574570365990548 0.000005073561481529917 0 0.000004560369941134634 0.000005057812083705382 0
          0.000004547080439533267 0.000005043072972042636 0 0.000004535041276614841 0.000005029720585180935 0
          0.000004524707886761239 0.00000501826003598387 0 0.000004516535704354342 0.000005009196437315038 0
          0.000004511234117779971 0.000005003316557177071 0 0.00000450951251542395 0.000005001407163572604 0
          0.000004512577209448876 0.000005004806152398563 0 0.000004521634512017351 0.00000501485141955187 0
          0.000004538687005378795 0.000005033763987631675 0 0.000004565737271782628 0.000005063764879237124 0
          0.000004606448227598248 0.000005108916559237056 0 0.000004664482789195047 0.0000051732814925003045 0
          0.0000032869716628269425 0.000004047122451615933 0 0.00000361466389902235 0.000004450597364808758 0
          0.00000385597420564966 0.0000047477135130257884 0 0.000004030182211003518 0.000004962209164963524 0
          0.00000415656754337857 0.0000051178225893184616 0 0.0000042454505550193 0.0000052272608409610725 0
          0.0000043071515981701935 0.000005303230974761832 0 0.00000434771442811639 0.00000535317443537424 0
          0.000004373182800143031 0.0000053845326674518005 0 0.000004386937664911994 0.000005401468506192103 0
          0.000004392359973085154 0.000005408144786792731 0 0.000004391390183318715 0.000005406950721756723 0
          0.000004385968754268882 0.000005400275523587111 0 0.000004377204982542214 0.000005389485026754781 0
          0.0000043662081647452655 0.000005375945065730616 0 0.000004353632916233587 0.000005360461643356853 0
          0.0000043401338523627196 0.000005343840762475737 0 0.000004326126172327048 0.000005326593641970126 0
          0.000004312025075320954 0.000005309231500722887 0 0.0000042981457566755545 0.000005292142426686114 0
          0.000004284803411721968 0.000005275714507811899 0 0.0000042723169462516865 0.000005260340400600235 0
          0.000004261005266056203 0.000005246412761551115 0 0.000004251296285278119 0.000005234458464976679 0
          0.000004243617918060034 0.0000052250043851890705 0 0.000004238636687033893 0.000005218871186004401 0
          0.000004237019114831643 0.000005216879531238778 0 0.000004239898620569849 0.000005220424956486751 0
          0.000004248408623365081 0.000005230902997342867 0 0.00000426443069672241 0.000005250630363276477 0
          0.000004289846414146909 0.000005281923763756929 0 0.000004328097355325984 0.000005329020684181326 0
          0.000004382625099947036 0.000005396158609946769 0 0.000003064171433385816 0.000004196831622362287 0
          0.000003369651763638498 0.000004615231681851978 0 0.0000035946053756549606 0.000004923338605044865 0
          0.0000037570050700329925 0.0000051457687750419415 0 0.000003874823647370378 0.000005307138574944201 0
          0.0000039576819172675326 0.000005420625112769764 0 0.000004015200689324864 0.000005499405496536749 0
          0.000004053014056012516 0.000005551196441173173 0 0.00000407675610980063 0.000005583714661607056 0
          0.0000040895786309594685 0.000005601276982595935 0 0.000004094633399759295 0.000005608200228897346 0
          0.000004093729345084179 0.00000560696199359259 0 0.000004088675395818189 0.000005600039869762963 0
          0.000004080505657308632 0.000005588850216158872 0 0.000004070254234902812 0.000005574809391530724 0
          0.000004058531372277303 0.000005558753213982981 0 0.000004045947313108678 0.0000055415175016201044 0
          0.000004032889113216427 0.000005523632384083387 0 0.000004019743828420037 0.000005505627991014124 0
          0.0000040068052892202315 0.00000548790676632378 0 0.000003994367326117731 0.0000054708711539238185 0
          0.000003982727228568144 0.000005454928335271089 0 0.000003972182286027072 0.0000054404854918224426 0
          0.0000039631314074071 0.000005428088987766419 0 0.0000039559735016208025 0.0000054182851872915615 0
          0.000003951329912512307 0.000005411925111807759 0 0.00000394982198392574 0.000005409859782724907 0
          0.000003952506308626505 0.00000541353635860649 0 0.0000039604394793800094 0.000005424401998015997 0
          0.000003975375531321165 0.000005444859109004338 0 0.000003999068499584884 0.000005477310099622429 0
          0.0000040347266838602534 0.000005526149206250919 0 0.000004085558383836355 0.000005595770665270456 0
          0.000002831887100330143 0.000004328152984188595 0 0.0000031142100138660624 0.000004759645030811592 0
          0.000003322110663647313 0.000005077392803193297 0 0.000003472199393865171 0.000005306782945727727 0
          0.000003581086548710915 0.0000054732021028088925 0 0.0000036576636171871775 0.000005590239702015377 0
          0.0000037108220882965947 0.00000567148517092576 0 0.0000037457689532715843 0.000005724896685075577 0
          0.0000037677112033445667 0.000005758432420000364 0 0.0000037795616931271304 0.0000057765442764761754 0
          0.000003784233277230862 0.000005783684155279061 0 0.0000037833977558417425 0.000005782407174853922 0
          0.000003778726929145754 0.000005775268453645654 0 0.0000037711765105085087 0.000005763728669113796 0
          0.0000037617022132956206 0.000005749248498717883 0 0.0000037508680207023233 0.0000057326899138088245 0
          0.0000037392379159238505 0.00000571491488573753 0 0.0000037271696134047588 0.000005696470132217607 0
          0.000003715020827589605 0.000005677902370962667 0 0.000003703063114696038 0.0000056596266385939245 0
          0.0000036915680309417056 0.000005642057971732599 0 0.0000036808103292876287 0.000005625616292785913 0
          0.000003671064762694825 0.000005610721524161093 0 0.0000036627000001585854 0.000005597937126107648 0
          0.0000036560847106741987 0.0000055878265588750885 0 0.0000036517931361387965 0.000005581267472840237 0
          0.000003650399518449514 0.000005579137518379917 0 0.0000036528803536959777 0.0000055829291365112455 0
          0.0000036602121379678186 0.000005594134768251343 0 0.0000036740159390088195 0.000005615231994430328 0
          0.0000036959128245627653 0.0000056486983958783164 0 0.000003728867884116659 0.000005699065707250282 0
          0.000003775846207157505 0.0000057708656632011955 0 0.000002592113813723595 0.000004440373508608958 0
          0.0000028505327047954564 0.000004883053298348115 0 0.000003040830597009285 0.000005209039647734794 0
          0.000003178211451929846 0.000005444377427098545 0 0.000003277879231121907 0.000005615111506768913 0
          0.0000033479725893594007 0.000005735183661548569 0 0.000003396630181416262 0.000005818535666240186 0
          0.0000034286181273471788 0.000005873332036274227 0 0.00000344870254720684 0.000005907737287081162 0
          0.0000034595496668752205 0.00000592631874849918 0 0.000003463825712232292 0.000005933643750366471 0
          0.00000346306093367376 0.000005932333660341596 0 0.000003458785581595326 0.000005925009846083126 0
          0.000003451874449987426 0.000005913170857554436 0 0.000003443202332840498 0.000005898315244718904 0
          0.000003433285461409277 0.000005881327328155246 0 0.000003422640066948499 0.0000058630914284421805 0
          0.0000034115935765483874 0.000005844168438612152 0 0.0000034004734172991647 0.000005825119251697611 0
          0.0000033895281530022936 0.00000580636966540596 0 0.000003379006347459235 0.000005788345477444605 0
          0.000003369159490549491 0.000005771477497985805 0 0.0000033602390721525607 0.000005756196537201828 0
          0.0000033525825463976247 0.0000057430806647621665 0 0.0000033465273674138628 0.000005732707950336312 0
          0.0000033425991565630184 0.00000572597880005531 0 0.0000033413235352068345 0.000005723793620050205 0
          0.0000033435943204055604 0.0000057276835474087535 0 0.0000033503053292194464 0.0000057391797192187105 0
          0.000003362940375071405 0.000005760823955125474 0 0.0000033829832713843476 0.000005795158074774441 0
          0.0000034131480562346017 0.000005846831311818747 0 0.000003456148767698495 0.000005920492899911535 0
          0.000002346901760593006 0.000004533081299301816 0 0.0000025808744153491984 0.0000049850035244377545 0
          0.000002753170267448419 0.0000053177959396179545 0 0.000002877554994915883 0.000005558047189785181 0
          0.0000029677942757768036 0.000005732345919882195 0 0.0000030312568540719276 0.00000585492498633753 0
          0.0000030753114738420007 0.000005940017245579713 0 0.0000031042733837031587 0.000005995957674867739 0
          0.0000031224578322715373 0.000006031081251460608 0 0.000003132278822427228 0.000006050050663629266 0
          0.0000031361503570503196 0.000006057528599644669 0 0.0000031354579259788 0.000006056191157066761 0
          0.0000031315870190506558 0.000006048714433455487 0 0.000003125329675390651 0.000006036628266064829 0
          0.0000031174779341235495 0.000006021462492148766 0 0.000003108499191408502 0.000006004119895464156 0
          0.000003098860843404658 0.00000598550325976786 0 0.00000308885934284123 0.000005966185188628331 0
          0.0000030787911424474302 0.000005946738285614025 0 0.000003068881292072607 0.000005927597238397267 0
          0.000003059354841566109 0.000005909196734650385 0 0.0000030504394900505005 0.000005891976579162694 0
          0.0000030423629366483454 0.000005876376576723511 0 0.00000303543071257733 0.00000586298686615863 0
          0.000003029948349055141 0.00000585239758629385 0 0.0000030263917440507454 0.00000584552794227858 0
          0.00000302523679553311 0.000005843297139262233 0 0.000003027292766128452 0.000005847268281989424 0
          0.0000030333689184629867 0.000005859004475204766 0 0.000003044808698305257 0.000005881100607621657 0
          0.0000030629555514238027 0.0000059161515679534884 0 0.0000030902667698965856 0.000005968903658304863 0
          0.0000031291996458015692 0.000006044103180780391 0 0.000002098300321134549 0.0000046060947789505515 0
          0.000002307488837182998 0.000005065296029546354 0 0.000002461533820172757 0.000005403448668960273 0
          0.0000025727427842510196 0.0000056475696003899695 0 0.000002653423243564979 0.000005824675727033104 0
          0.0000027101633895108854 0.000005949229151233876 0 0.0000027495514134849854 0.000006035691975336489 0
          0.0000027754454605997166 0.00000609253342649583 0 0.0000027917036759675117 0.000006128222731866791 0
          0.0000028004843531750762 0.000006147497680754857 0 0.000002803945785809113 0.0000061550960624655175 0
          0.000002803326702230898 0.000006153737077953918 0 0.0000027998658308017065 0.000006146139928175212 0
          0.000002794271311920832 0.000006133859091181512 0 0.0000027872512859875673 0.000006118449045024928 0
          0.0000027792236390537734 0.000006100827114428853 0 0.0000027706062571713136 0.000006081910624116677 0
          0.0000027616641905725185 0.000006062281400473794 0 0.0000027526624894897236 0.000006042521269885591 0
          0.000002743802364804053 0.000006023071921456192 0 0.00000273528502739663 0.000006004375044289711 0
          0.0000027273140567909016 0.000005986877527027684 0 0.000002720093032510314 0.000005971026258311649 0
          0.000002713895121614075 0.000005957420882221402 0 0.0000027089934911613924 0.000005946661042836738 0
          0.0000027058136284384716 0.000005939680750769853 0 0.0000027047810207315198 0.0000059374140166329396 0
          0.000002706619207498805 0.0000059414491218019015 0 0.000002712051728198596 0.000005953374347652639 0
          0.0000027222797207459475 0.00000597582637827828 0 0.0000027385043230559167 0.000006011441897771952 0
          0.00000276292253239653 0.000006065043656024916 0 0.000002797731346035815 0.000006141454402928428 0
          0.0000018483243141954648 0.000004659524234996588 0 0.0000020325916550369524 0.000005124052096140685 0
          0.0000021682848561825544 0.00000546612721488957 0 0.0000022662452054194846 0.000005713079883224928 0
          0.0000023373139905349595 0.000005892240393128443 0 0.0000023872945344478156 0.0000060182386034275464 0
          0.000002421990160076888 0.0000061057043729496705 0 0.000002444799381613489 0.000006163205169598488 0
          0.00000245912071324893 0.000006199308461277667 0 0.0000024668553254082903 0.0000062188069943697 0
          0.0000024699043885166504 0.000006226493515257079 0 0.0000024693590579847817 0.000006225118766892006 0
          0.0000024663104892234543 0.0000062174334922266795 0 0.0000024613824600135226 0.000006205010200838995 0
          0.000002455198748135837 0.000006189421402306844 0 0.000002448127455783606 0.000006171595062072789 0
          0.000002440536685150037 0.000006152459145579385 0 0.0000024326599103398475 0.000006132602228241033 0
          0.0000024247306054577563 0.000006112612885472135 0 0.0000024169260106062005 0.0000060929379298511855 0
          0.000002409423365887617 0.000006074024173956678 0 0.000002402401997864209 0.000006056323690217755 0
          0.0000023960412330981796 0.000006040288551063564 0 0.000002390581695542299 0.000006026525356283352 0
          0.000002386264009149339 0.000006015640705666373 0 0.0000023834629717919167 0.000006008579444095788 0
          0.000002382553381342652 0.000006006286416454765 0 0.000002384172580111187 0.000006010368327754418 0
          0.0000023889579104071653 0.000006022431883005863 0 0.000002397967415443342 0.0000060451443511259525 0
          0.000002412259138432476 0.000006081173001031533 0 0.00000243376834261016 0.000006135396525210725 0
          0.0000024644302912119903 0.000006212693616151643 0 0.0000015989206689953197 0.000004693689594111157 0
          0.0000017583238958162985 0.0000051616235457470865 0 0.0000018757073345821516 0.0000055062068860839135 0
          0.000001960449403890116 0.000005754970302936217 0 0.000002021928522337432 0.000005935444484118574 0
          0.0000020651649414528093 0.000006062366560007034 0 0.000002095178912764959 0.000006150473660977643 0
          0.0000021149103719456974 0.000006208396074784943 0 0.0000021272992546668394 0.000006244764089183474 0
          0.0000021339901969181852 0.000006264405592749012 0 0.000002136627834689534 0.000006272148474057333 0
          0.0000021361560883340236 0.000006270763645527744 0 0.0000021335188782047927 0.000006263022019579552 0
          0.0000021292558126265286 0.000006250507636013851 0 0.0000021239064999239178 0.00000623480453463174 0
          0.000002117789372419957 0.000006216847485062426 0 0.0000021112228624376432 0.0000061975712569351215 0
          0.000002104408940252885 0.000006177568741317367 0 0.000002097549576141593 0.000006157432829276706 0
          0.0000020907980943126085 0.000006137613609587108 0 0.0000020843078189747747 0.000006118561171022538 0
          0.0000020782338792602492 0.000006100730900774789 0 0.000002072731404301189 0.000006084578186035651 0
          0.0000020680085494567938 0.0000060707140744089155 0 0.000002064273470086264 0.000006059749613498373 0
          0.000002061850390710496 0.000006052636576140153 0 0.000002061063535850385 0.000006050326735170382 0
          0.000002062464248029693 0.00000605443857655697 0 0.00000206660386977218 0.000006066590586267829 0
          0.0000020743976772274766 0.000006089469590624343 0 0.000002086760946545213 0.0000061257624159479 0
          0.0000021053678062122115 0.000006180383527108635 0 0.0000021318923847152954 0.000006258247388976689 0
          0.0000013519249937484276 0.0000047091653957888914 0 0.0000014867041673517036 0.000005178642196155392 0
          0.0000015859546228604672 0.000005524361679675091 0 0.0000016576060335533793 0.000005773945306987689 0
          0.000001709588072709102 0.000005955014538732891 0 0.0000017461454809506148 0.000006082355095825674 0
          0.0000017715229989008978 0.000006170752699181023 0 0.0000017882064112469734 0.000006228866091912316 0
          0.0000017986815026758635 0.00000626535401713293 0 0.0000018043388515591824 0.000006285060281694576 0
          0.000001806569036268544 0.000006292828692448962 0 0.000001806170163640807 0.000006291439297931061 0
          0.0000018039403405128291 0.000006283672146675849 0 0.0000018003358184017262 0.000006271116501302278 0
          0.000001795812848824615 0.000006255361624429294 0 0.0000017906406737924498 0.000006237345367762393 0
          0.0000017850885353161854 0.000006218005583007066 0 0.000001779327204009581 0.000006197937116082028 0
          0.000001773527450486394 0.000006177734812905984 0 0.000001767818913967694 0.000006157850246263396 0
          0.000001762331233674549 0.000006138734988938719 0 0.0000017571955749331012 0.000006120845929603921 0
          0.0000017525431030694897 0.000006104639956930965 0 0.0000017485498183307201 0.000006090730133239646 0
          0.0000017453917209637965 0.000006079729520849752 0 0.0000017433429504190908 0.000006072593030735837 0
          0.000001742677646146975 0.000006070275573872448 0 0.000001743861981205589 0.0000060744009726195465 0
          0.0000017473621286530735 0.000006086593049337098 0 0.0000017539519759791947 0.000006109547489217627 0
          0.0000017644054106737179 0.000006145959977453662 0 0.000001780137947707428 0.0000062007611826463675 0
          0.0000018025651020511097 0.000006278881773396912 0 0.0000011090525483591137 0.000004706695780531374 0
          0.000001219618731127627 0.000005175926374410861 0 0.0000013010389068887328 0.000005521464553168241 0
          0.0000013598181882762524 0.000005770917291993211 0 0.0000014024616879240077 0.0000059518915660754645 0
          0.0000014324515815641407 0.000006079165342293193 0 0.0000014532700449287937 0.0000061675165875245946 0
          0.00000146695629310352 0.000006225599504001124 0 0.000001475549541173874 0.000006262068293954238 0
          0.000001480190551011898 0.0000062817642240107255 0 0.0000014820200844896358 0.000006289528560797376 0
          0.0000014816928690700577 0.000006288139894915603 0 0.000001479863632216134 0.0000062803768169668125 0
          0.0000014769066601568313 0.000006267827756117124 0 0.0000014731962391211149 0.0000062520811415326515 0
          0.000001468953241967877 0.000006234074333083776 0 0.0000014643985415560102 0.0000062147446906408745 0
          0.0000014596722296696383 0.0000061946867481691685 0 0.000001454914398092885 0.000006174495039633876 0
          0.0000014502313964451144 0.000006154620901002323 0 0.0000014457295743456937 0.0000061355156682418335 0
          0.0000014415165333552749 0.000006117635990419445 0 0.0000014376998750345088 0.0000061014385166021906 0
          0.000001434423981300555 0.0000060875359876031975 0 0.0000014318332340705706 0.000006076541144235593 0
          0.0000014301525238210542 0.000006069408396692472 0 0.000001429606741028505 0.000006067092155166927 0
          0.0000014305783110645154 0.000006071215390442019 0 0.0000014334496593006793 0.000006083401073300807 0
          0.000001438855644842817 0.000006106343475244697 0 0.0000014474311267967492 0.0000061427368677750916 0
          0.0000014603373237899256 0.000006197509333715522 0 0.000001478735454449796 0.000006275588955889521 0
          8.718515917536539e-7 0.00000468722282025075 0 9.58770198614876e-7 0.000005154512071596222 0
          0.0000010227764622876544 0.000005498620659077451 0 0.0000010689842006992874 0.000005747041339851691 0
          0.0000011025072317770732 0.0000059272668710762005 0 0.0000011260829735624418 0.000006054014078910639 0
          0.0000011424488440968222 0.0000061419997895146765 0 0.00000115320791703157 0.000006199842400184819 0
          0.0000011599632660180408 0.0000062361603082175826 0 0.0000011636116700730756 0.000006255774750521014 0
          0.000001165049908213514 0.000006263506964003164 0 0.0000011647926766830941 0.000006262124043433356 0
          0.0000011633546717255538 0.00000625439308358091 0 0.0000011610301283119754 0.000006241895941821562 0
          0.0000011581132814134397 0.000006226214475531048 0 0.0000011547777642395578 0.0000062082821664511495 0
          0.000001151197209999941 0.0000061890324963236425 0 0.0000011474817480524458 0.000006169057539354962 0
          0.0000011437415077549288 0.000006148949369751545 0 0.000001140060092977255 0.0000061291574561734185 0
          0.000001136521107589291 0.000006110131267280615 0 0.0000011332091396406013 0.000006092325562851049 0
          0.0000011302087771807492 0.000006076195102662632 0 0.0000011276335221393618 0.000006062350092442712 0
          0.0000011255968764460649 0.000006051400737918646 0 0.000001124275631651624 0.000006044297500612816 0
          0.000001123846579306804 0.000006041990842047606 0 0.0000011246103527489913 0.000006046097018307047 0
          0.0000011268675853155731 0.000006058232285475174 0 0.0000011311173542800034 0.0000060810797680737744 0
          0.0000011378587369157358 0.000006117322590624638 0 0.0000011480045937632782 0.000006171868447048852 0
          0.0000011624677853631377 0.0000062496250312675024 0 6.416150262142212e-7 0.0000046518114262497305 0
          7.055803670457847e-7 0.000005115570364567316 0 7.526840036426733e-7 0.000005457079253841312 0
          7.866893086419832e-7 0.000005703623146817503 0 8.113596546808096e-7 0.000005882487096241671 0
          8.287095687327056e-7 0.000006008276744455279 0 8.407535777712236e-7 0.000006095597733799792 0
          8.486714194404404e-7 0.000006153003350636295 0 8.536428313844322e-7 0.00000618904688132587 0
          8.563277732773288e-7 0.000006208513138922567 0 8.573862047932592e-7 0.000006216186936480432 0
          8.571969023742561e-7 0.0000062148144637069174 0 8.561386424623504e-7 0.000006207141910309476 0
          8.544279591333644e-7 0.00000619473918292524 0 8.522813864631186e-7 0.00000617917618819134 0
          8.498267050020931e-7 0.000006161379355509403 0 8.471916953007676e-7 0.000006142275114281054 0
          8.444574040091608e-7 0.000006122451065664665 0 8.417048777772907e-7 0.00000610249481081861 0
          8.389956425571218e-7 0.000006082852422722282 0 8.363912243006184e-7 0.000006063969974355069 0
          8.339538732395318e-7 0.000006046298789840495 0 8.317458396056125e-7 0.000006030290193302084 0
          8.298506519996514e-7 0.000006016549780437698 0 8.283518390224378e-7 0.000006005683146945199 0
          8.273795055181439e-7 0.000005998633573726649 0 8.270637563309416e-7 0.000005996344341684101 0
          8.276258342371047e-7 0.000006000419496284952 0 8.292869820129072e-7 0.000006012463082996589 0
          8.324144817519115e-7 0.0000060351379556638695 0 8.373756155476795e-7 0.000006071106968131648 0
          8.448421778261289e-7 0.000006125240737294925 0 8.554859630131772e-7 0.0000062024098800487 0
          4.1904300020728336e-7 0.000004601676173620724 0 4.608191856728838e-7 0.000005060436914589486 0
          4.915828810269302e-7 0.000005398265165747383 0 5.137919697298736e-7 0.000005642151913102162 0
          5.299043352421652e-7 0.000005819088142661571 0 5.412356784008443e-7 0.000005943522083342104 0
          5.491017000429506e-7 0.000006029901964060259 0 5.542728945952872e-7 0.0000060866888874806045 0
          5.575197564846574e-7 0.00000612234395626772 0 5.592733097216802e-7 0.000006141600414787794 0
          5.599645783169756e-7 0.000006149191507407024 0 5.598409436600021e-7 0.000006147833826563713 0
          5.59149787140219e-7 0.000006140243964696161 0 5.580325285889487e-7 0.000006127974908652914 0
          5.566305878375134e-7 0.0000061125796452825205 0 5.550274192051782e-7 0.00000609497461932303 0
          5.533064770112076e-7 0.0000060760762755124945 0 5.515206933566175e-7 0.000006056465882092967 0
          5.497230003424235e-7 0.000006036724707306498 0 5.479535809731502e-7 0.000006017294016546904 0
          5.462526182533227e-7 0.000005998615075208003 0 5.446607682193655e-7 0.000005981134343233137 0
          5.432186869077041e-7 0.000005965298280565651 0 5.419809273977519e-7 0.000005951705956049563 0
          5.410020427689222e-7 0.000005940956438528891 0 5.403670053519999e-7 0.000005933982842623785 0
          5.401607874777694e-7 0.000005931718282954398 0 5.405278842608349e-7 0.0000059357495172656885 0
          5.416127908157998e-7 0.000005947663303302606 0 5.436553814974058e-7 0.00000597009379579948 0
          5.468955306603952e-7 0.000006005675149490639 0 5.517719916696874e-7 0.000006059225487825801 0
          5.587235178902027e-7 0.000006135562934254696 0 2.0478201647618638e-7 0.000004538063151186825 0
          2.2519760985470758e-7 0.0000049904820384004935 0 2.4023151226217804e-7 0.000005323640192114054 0
          2.5108486613655676e-7 0.000005564155478165362 0 2.589588139158026e-7 0.0000057386457623922705 0
          2.644963251049293e-7 0.000005861359543118501 0 2.683403692089506e-7 0.000005946545318667769 0
          2.708674789520646e-7 0.0000060025472264308235 0 2.7245418705846944e-7 0.000006037709403798409 0
          2.7331113054161793e-7 0.000006056699663331248 0 2.73648946414963e-7 0.000006064185817590056 0
          2.735885274264294e-7 0.000006062846905163332 0 2.7325076632394226e-7 0.0000060553619646395685 0
          2.7270477352869235e-7 0.000006043262514562365 0 2.720196594618707e-7 0.000006028080073475311 0
          2.712362073934087e-7 0.000006010718417293714 0 2.7039520059323757e-7 0.000005992081321932886 0
          2.6952250643625906e-7 0.000005972742020252027 0 2.6864399229737503e-7 0.0000059532737451103415 0
          2.677792951987816e-7 0.000005934111661901478 0 2.6694805216267513e-7 0.000005915690936019085 0
          2.661701313770844e-7 0.00000589845185559751 0 2.654654010300383e-7 0.000005882834708771097 0
          2.6486052065193906e-7 0.000005869430282927635 0 2.6438214977318915e-7 0.0000058588293654549095 0
          2.6407181350034466e-7 0.0000058519521717078835 0 2.6397103693996114e-7 0.000005849718917041522 0
          2.6415043337257054e-7 0.000005853694424051001 0 2.6468061607870426e-7 0.000005865443515331498 0
          2.6567880919534253e-7 0.000005887563931376511 0 2.672622368594653e-7 0.000005922653412679532 0
          2.6964531334072665e-7 0.0000059754634775264125 0 2.7304245290878013e-7 0.000006050745644203001 0
          0 0.00000446214609458393 0 0 0.000004906996486367573 0
          0 0.000005234581252158033 0 0 0.00000547107296869794 0
          0 0.000005642644212729926 0 0 0.0000057633051200833 0
          0 0.000005847065826587373 0 0 0.00000590213088092994 0
          0 0.000005936704831798797 0 0 0.0000059553774041262074 0
          0 0.000005962738322844435 0 0 0.00000596142180902473 0
          0 0.0000059540620837383435 0 0 0.000005942165044823354 0
          0 0.0000059272365901178356 0 0 0.000005910165376310042 0
          0 0.000005891840060088225 0 0 0.000005872824284724597 0
          0 0.000005853681693491369 0 0 0.000005834840171919671 0
          0 0.000005816727605540631 0 0 0.000005799776916927969 0
          0 0.000005784421028655402 0 0 0.000005771240844854769 0
          0 0.0000057608172696579166 0 0 0.000005754055124178062 0
          0 0.000005751859229528428 0 0 0.000005755768230456646 0
          0 0.000005767320771710354 0 0 0.00000578907113629803 0
          0 0.000005823573607228153 0 0 0.0000058755002148488295 0
          0 0.000005949522989508166 0
          <InformationKey name="L2_NORM_RANGE" location="vtkDataArray" length="2">
            <Value index="0">
              4.4621460946e-06
            </Value>
            <Value index="1">
              6.985804775e-06
            </Value>
          </InformationKey>
        </DataArray>
        <DataArray type="Float64" Name="displacement_x" format="ascii" RangeMin="0" RangeMax="0.000006292828692445227">
          0.00000446214609457992 0.000004906996486363564 0.000005234581252154017 0.000005471072968693915 0.000005642644212725897 0.000005763305120079269
          0.000005847065826583335 0.000005902130880925896 0.0000059367048317947495 0.000005955377404122157 0.000005962738322840381 0.000005961421809020672
          0.000005954062083734288 0.000005942165044819298 0.0000059272365901137766 0.00000591016537630598 0.000005891840060084166 0.000005872824284720542
          0.000005853681693487313 0.000005834840171915613 0.000005816727605536573 0.000005799776916923913 0.0000057844210286513485 0.000005771240844850722
          0.000005760817269653876 0.000005754055124174029 0.0000057518592295244 0.000005755768230452626 0.00000576732077170634 0.000005789071136294021
          0.00000582357360722415 0.000005875500214844832 0.000005949522989504179 0.0000045380631511827834 0.000004990482038396435 0.000005323640192109985
          0.000005564155478161284 0.0000057386457623881835 0.000005861359543114407 0.000005946545318663669 0.000006002547226426719 0.0000060377094037943
          0.0000060566996633271336 0.00000606418581758594 0.0000060628469051592125 0.000006055361964635447 0.0000060432625145582375 0.000006028080073471184
          0.000006010718417289589 0.000005992081321928759 0.000005972742020247902 0.000005953273745106221 0.000005934111661897363 0.000005915690936014974
          0.000005898451855593401 0.000005882834708766992 0.000005869430282923534 0.000005858829365450814 0.000005851952171703794 0.000005849718917037437
          0.000005853694424046921 0.000005865443515327426 0.000005887563931372443 0.000005922653412675473 0.000005975463477522361 0.000006050745644198957
          0.000004601676173616628 0.000005060436914585382 0.000005398265165743267 0.0000056421519130980385 0.000005819088142657443 0.000005943522083337974
          0.000006029901964056123 0.000006086688887476468 0.000006122343956263578 0.000006141600414783648 0.000006149191507402877 0.000006147833826559563
          0.000006140243964692014 0.000006127974908648769 0.0000061125796452783785 0.00000609497461931889 0.00000607607627550836 0.000006056465882088837
          0.000006036724707302372 0.0000060172940165427815 0.000005998615075203881 0.000005981134343229019 0.000005965298280561536 0.000005951705956045453
          0.000005940956438524785 0.000005933982842619686 0.000005931718282950306 0.000005935749517261602 0.000005947663303298526 0.0000059700937957954066
          0.000006005675149486572 0.000006059225487821743 0.000006135562934250646 0.000004651811426245655 0.0000051155703645632314 0.000005457079253837222
          0.000005703623146813408 0.000005882487096237574 0.000006008276744451179 0.000006095597733795689 0.000006153003350632189 0.000006189046881321765
          0.00000620851313891846 0.0000062161869364763255 0.000006214814463702813 0.000006207141910305375 0.000006194739182921143 0.0000061791761881872465
          0.000006161379355505312 0.000006142275114276966 0.000006122451065660581 0.00000610249481081453 0.0000060828524227182046 0.000006063969974350994
          0.0000060462987898364245 0.000006030290193298014 0.000006016549780433633 0.000006005683146941144 0.000005998633573722602 0.000005996344341680064
          0.000006000419496280917 0.000006012463082992561 0.000006035137955659847 0.000006071106968127635 0.000006125240737290921 0.000006202409880044706
          0.000004687222820246743 0.000005154512071592208 0.000005498620659073437 0.000005747041339847678 0.000005927266871072185 0.000006054014078906621
          0.000006141999789510656 0.000006199842400180799 0.000006236160308213564 0.0000062557747505170005 0.000006263506963999154 0.000006262124043429349
          0.000006254393083576905 0.000006241895941817559 0.00000622621447552705 0.000006208282166447154 0.000006189032496319648 0.00000616905753935097
          0.000006148949369747555 0.000006129157456169434 0.0000061101312672766395 0.000006092325562847079 0.000006076195102658663 0.00000606235009243875
          0.0000060514007379146954 0.0000060442975006088775 0.000006041990842043676 0.000006046097018303124 0.000006058232285471257 0.0000060810797680698645
          0.000006117322590620742 0.000006171868447044969 0.000006249625031263626 0.000004706695780527446 0.000005175926374406934 0.000005521464553164318
          0.000005770917291989292 0.0000059518915660715495 0.000006079165342289281 0.000006167516587520687 0.00000622559950399722 0.00000626206829395034
          0.000006281764224006834 0.000006289528560793491 0.000006288139894911721 0.000006280376816962936 0.00000626782775611325 0.000006252081141528782
          0.0000062340743330799134 0.000006214744690637019 0.000006194686748165318 0.000006174495039630031 0.000006154620900998485 0.000006135515668238003
          0.000006117635990415621 0.0000061014385165983755 0.00000608753598759939 0.0000060765411442317985 0.000006069408396688688 0.000006067092155163156
          0.000006071215390438258 0.000006083401073297058 0.000006106343475240959 0.000006142736867771368 0.000006197509333711812 0.000006275588955885824
          0.000004709165395785069 0.00000517864219615158 0.000005524361679671286 0.000005773945306983893 0.000005955014538729105 0.000006082355095821899
          0.000006170752699177257 0.000006228866091908555 0.000006265354017129181 0.000006285060281690835 0.000006292828692445227 0.0000062914392979273335
          0.000006283672146672128 0.000006271116501298564 0.000006255361624425589 0.000006237345367758697 0.000006218005583003384 0.000006197937116078356
          0.000006177734812902324 0.000006157850246259744 0.0000061387349889350766 0.000006120845929600287 0.000006104639956927344 0.000006090730133236037
          0.0000060797295208461545 0.00000607259303073225 0.000006070275573868877 0.00000607440097261599 0.000006086593049333558 0.000006109547489214102
          0.0000061459599774501515 0.0000062007611826428734 0.000006278881773393437 0.000004693689594107489 0.000005161623545743431 0.0000055062068860802705
          0.000005754970302932587 0.000005935444484114955 0.000006062366560003427 0.000006150473660974046 0.000006208396074781355 0.000006244764089179897
          0.000006264405592745448 0.000006272148474053779 0.0000062707636455242 0.0000062630220195760175 0.0000062505076360103294 0.0000062348045346282305
          0.000006216847485058932 0.000006197571256931641 0.000006177568741313901 0.000006157432829273255 0.00000613761360958367 0.0000061185611710191125
          0.0000061007309007713766 0.000006084578186032252 0.0000060707140744055325 0.000006059749613495003 0.000006052636576136793 0.000006050326735167039
          0.000006054438576553642 0.000006066590586264518 0.000006089469590621048 0.0000061257624159446234 0.0000061803835271053804 0.0000062582473889734535
          0.000004659524234993094 0.000005124052096137204 0.000005466127214886106 0.00000571307988322148 0.000005892240393125007 0.000006018238603424122
          0.000006105704372946258 0.0000061632051695950865 0.000006199308461274279 0.000006218806994366328 0.000006226493515253722 0.0000062251187668886625
          0.00000621743349222335 0.000006205010200835681 0.000006189421402303548 0.000006171595062069508 0.000006152459145576119 0.000006132602228237784
          0.000006112612885468904 0.000006092937929847971 0.000006074024173953482 0.0000060563236902145756 0.0000060402885510603995 0.0000060265253562802035
          0.00000601564070566324 0.000006008579444092671 0.0000060062864164516645 0.0000060103683277513335 0.000006022431883002794 0.0000060451443511229
          0.000006081173001028504 0.0000061353965252077185 0.0000062126936161486614 0.000004606094778947218 0.000005065296029543039 0.000005403448668956978
          0.000005647569600386694 0.000005824675727029848 0.000005949229151230637 0.0000060356919753332624 0.000006092533426492618 0.000006128222731863595
          0.00000614749768075168 0.000006155096062462356 0.0000061537370779507765 0.00000614613992817209 0.000006133859091178408 0.000006118449045021842
          0.000006100827114425784 0.000006081910624113627 0.000006062281400470762 0.000006042521269882583 0.000006023071921453202 0.000006004375044286739
          0.00000598687752702473 0.000005971026258308713 0.000005957420882218486 0.000005946661042833843 0.000005939680750766976 0.000005937414016630084
          0.000005941449121799064 0.000005953374347649821 0.0000059758263782754824 0.000006011441897769176 0.00000606504365602216 0.0000061414544029256986
          0.000004533081299298648 0.00000498500352443461 0.0000053177959396148315 0.000005558047189782081 0.00000573234591987912 0.000005854924986334478
          0.000005940017245576679 0.000005995957674864724 0.000006031081251457611 0.000006050050663626291 0.0000060575285996417165 0.0000060561911570638304
          0.0000060487144334525785 0.000006036628266061942 0.000006021462492145898 0.000006004119895461308 0.000005985503259765036 0.000005966185188625529
          0.000005946738285611245 0.000005927597238394509 0.000005909196734647644 0.0000058919765791599735 0.000005876376576720812 0.000005862986866155954
          0.000005852397586291197 0.000005845527942275951 0.000005843297139259628 0.000005847268281986843 0.000005859004475202209 0.000005881100607619121
          0.000005916151567950971 0.0000059689036583023705 0.0000060441031807779265 0.000004440373508605974 0.000004883053298345156 0.000005209039647731862
          0.000005444377427095638 0.0000056151115067660336 0.000005735183661545717 0.000005818535666237355 0.000005873332036271421 0.000005907737287078382
          0.000005926318748496426 0.0000059336437503637404 0.000005932333660338891 0.000005925009846080444 0.000005913170857551778 0.0000058983152447162694
          0.000005881327328152638 0.000005863091428439596 0.0000058441684386095935 0.000005825119251695076 0.000005806369665403448 0.000005788345477442114
          0.000005771477497983339 0.000005756196537199387 0.000005743080664759751 0.000005732707950333921 0.000005725978800052944 0.000005723793620047863
          0.000005727683547406437 0.000005739179719216419 0.0000057608239551232074 0.0000057951580747721995 0.000005846831311816535 0.000005920492899909349
          0.000004328152984185808 0.000004759645030808832 0.000005077392803190566 0.000005306782945725024 0.000005473202102806217 0.000005590239702012729
          0.0000056714851709231414 0.000005724896685072988 0.000005758432419997804 0.0000057765442764736445 0.0000057836841552765575 0.000005782407174851445
          0.000005775268453643202 0.00000576372866911137 0.000005749248498715485 0.0000057326899138064545 0.000005714914885735186 0.000005696470132215289
          0.000005677902370960374 0.000005659626638591658 0.000005642057971730361 0.000005625616292783703 0.000005610721524158909 0.000005597937126105488
          0.000005587826558872956 0.00000558126747283813 0.000005579137518377834 0.000005582929136509189 0.000005594134768249311 0.0000056152319944283215
          0.000005648698395876342 0.000005699065707248338 0.000005770865663199278 0.000004196831622359694 0.0000046152316818494135 0.00000492333860504233
          0.000005145768775039438 0.000005307138574941726 0.000005420625112767319 0.000005499405496534335 0.000005551196441170793 0.0000055837146616047054
          0.000005601276982593615 0.000005608200228895056 0.000005606961993590327 0.000005600039869760727 0.000005588850216156664 0.000005574809391528544
          0.000005558753213980827 0.0000055415175016179775 0.00000552363238408129 0.000005505627991012057 0.000005487906766321742 0.0000054708711539218085
          0.0000054549283352691075 0.000005440485491820487 0.000005428088987764489 0.000005418285187289658 0.000005411925111805883 0.0000054098597827230575
          0.000005413536358604669 0.0000054244019980142005 0.00000544485910900257 0.000005477310099620689 0.000005526149206249206 0.000005595770665268771
          0.000004047122451613529 0.000004450597364806383 0.000004747713513023445 0.000004962209164961213 0.000005117822589316183 0.000005227260840958827
          0.000005303230974759618 0.000005353174435372058 0.000005384532667449651 0.0000054014685061899825 0.000005408144786790641 0.000005406950721754662
          0.000005400275523585082 0.0000053894850267527805 0.0000053759450657286406 0.000005360461643354906 0.000005343840762473818 0.00000532659364196824
          0.000005309231500721034 0.000005292142426684291 0.0000052757145078101035 0.000005260340400598467 0.000005246412761549375 0.0000052344584649749685
          0.000005225004385187389 0.000005218871186002746 0.000005216879531237153 0.000005220424956485155 0.000005230902997341301 0.000005250630363274939
          0.000005281923763755416 0.000005329020684179838 0.000005396158609945309 0.000003879964469210353 0.000004266774689588428 0.000004551619072750368
          0.000004757255427535434 0.000004906441562782885 0.000005011359694868723 0.000005084192040168946 0.000005132072689929961 0.000005162135735398176
          0.000005178372074514267 0.000005184772605218913 0.000005183627858557811 0.000005177228365576665 0.000005166883547791921 0.000005153902826720032
          0.000005139058914930821 0.00000512312452499411 0.000005106589760959188 0.000005089944726875341 0.000005073561481528302 0.000005057812083703798
          0.000005043072972041085 0.000005029720585179415 0.000005018260035982383 0.0000050091964373135825 0.0000050033165571756465 0.000005001407163571212
          0.000005004806152397199 0.000005014851419550536 0.000005033763987630371 0.000005063764879235852 0.000005108916559235815 0.000005173281492499097
          0.0000036965746561946167 0.000004065101963275248 0.000004336482934959795 0.000004532399712941383 0.000004674534438913139 0.00000477449352645672
          0.000004843883389153782 0.0000048895009193742784 0.000004918143009488161 0.000004933611924258427 0.000004939709928448075 0.000004938619289209279
          0.000004932522273694217 0.000004922666412500242 0.00000491029923622471 0.000004896156934522138 0.000004880975697047039 0.0000048652224626649335
          0.0000048493641702413366 0.000004833755292887761 0.0000048187503037157125 0.000004804707848672732 0.000004791986573706352 0.000004781067717092056
          0.000004772432517105321 0.000004766830554491516 0.0000047650114099960086 0.0000047682497427308765 0.000004777820211808192 0.0000047958388613092874
          0.000004824421735315493 0.000004867439282846376 0.000004928761952921498 0.000003498365112272621 0.000003847132063820649 0.000004103961645737717
          0.000004289373407908092 0.000004423886900216037 0.000004518486202824697 0.000004584155395897213 0.000004627326923885658 0.000004654433231242099
          0.000004669072706104649 0.00000467484373661142 0.000004673811577215755 0.000004668041482371 0.0000046587140903502024 0.0000046470100394264085
          0.000004633626044922018 0.000004619258822159435 0.000004604350272841891 0.000004589342298672614 0.000004574570365990548 0.000004560369941134634
          0.000004547080439533267 0.000004535041276614841 0.000004524707886761239 0.000004516535704354342 0.000004511234117779971 0.00000450951251542395
          0.000004512577209448876 0.000004521634512017351 0.000004538687005378795 0.000004565737271782628 0.000004606448227598248 0.000004664482789195047
          0.0000032869716628269425 0.00000361466389902235 0.00000385597420564966 0.000004030182211003518 0.00000415656754337857 0.0000042454505550193
          0.0000043071515981701935 0.00000434771442811639 0.000004373182800143031 0.000004386937664911994 0.000004392359973085154 0.000004391390183318715
          0.000004385968754268882 0.000004377204982542214 0.0000043662081647452655 0.000004353632916233587 0.0000043401338523627196 0.000004326126172327048
          0.000004312025075320954 0.0000042981457566755545 0.000004284803411721968 0.0000042723169462516865 0.000004261005266056203 0.000004251296285278119
          0.000004243617918060034 0.000004238636687033893 0.000004237019114831643 0.000004239898620569849 0.000004248408623365081 0.00000426443069672241
          0.000004289846414146909 0.000004328097355325984 0.000004382625099947036 0.000003064171433385816 0.000003369651763638498 0.0000035946053756549606
          0.0000037570050700329925 0.000003874823647370378 0.0000039576819172675326 0.000004015200689324864 0.000004053014056012516 0.00000407675610980063
          0.0000040895786309594685 0.000004094633399759295 0.000004093729345084179 0.000004088675395818189 0.000004080505657308632 0.000004070254234902812
          0.000004058531372277303 0.000004045947313108678 0.000004032889113216427 0.000004019743828420037 0.0000040068052892202315 0.000003994367326117731
          0.000003982727228568144 0.000003972182286027072 0.0000039631314074071 0.0000039559735016208025 0.000003951329912512307 0.00000394982198392574
          0.000003952506308626505 0.0000039604394793800094 0.000003975375531321165 0.000003999068499584884 0.0000040347266838602534 0.000004085558383836355
          0.000002831887100330143 0.0000031142100138660624 0.000003322110663647313 0.000003472199393865171 0.000003581086548710915 0.0000036576636171871775
          0.0000037108220882965947 0.0000037457689532715843 0.0000037677112033445667 0.0000037795616931271304 0.000003784233277230862 0.0000037833977558417425
          0.000003778726929145754 0.0000037711765105085087 0.0000037617022132956206 0.0000037508680207023233 0.0000037392379159238505 0.0000037271696134047588
          0.000003715020827589605 0.000003703063114696038 0.0000036915680309417056 0.0000036808103292876287 0.000003671064762694825 0.0000036627000001585854
          0.0000036560847106741987 0.0000036517931361387965 0.000003650399518449514 0.0000036528803536959777 0.0000036602121379678186 0.0000036740159390088195
          0.0000036959128245627653 0.000003728867884116659 0.000003775846207157505 0.000002592113813723595 0.0000028505327047954564 0.000003040830597009285
          0.000003178211451929846 0.000003277879231121907 0.0000033479725893594007 0.000003396630181416262 0.0000034286181273471788 0.00000344870254720684
          0.0000034595496668752205 0.000003463825712232292 0.00000346306093367376 0.000003458785581595326 0.000003451874449987426 0.000003443202332840498
          0.000003433285461409277 0.000003422640066948499 0.0000034115935765483874 0.0000034004734172991647 0.0000033895281530022936 0.000003379006347459235
          0.000003369159490549491 0.0000033602390721525607 0.0000033525825463976247 0.0000033465273674138628 0.0000033425991565630184 0.0000033413235352068345
          0.0000033435943204055604 0.0000033503053292194464 0.000003362940375071405 0.0000033829832713843476 0.0000034131480562346017 0.000003456148767698495
          0.000002346901760593006 0.0000025808744153491984 0.000002753170267448419 0.000002877554994915883 0.0000029677942757768036 0.0000030312568540719276
          0.0000030753114738420007 0.0000031042733837031587 0.0000031224578322715373 0.000003132278822427228 0.0000031361503570503196 0.0000031354579259788
          0.0000031315870190506558 0.000003125329675390651 0.0000031174779341235495 0.000003108499191408502 0.000003098860843404658 0.00000308885934284123
          0.0000030787911424474302 0.000003068881292072607 0.000003059354841566109 0.0000030504394900505005 0.0000030423629366483454 0.00000303543071257733
          0.000003029948349055141 0.0000030263917440507454 0.00000302523679553311 0.000003027292766128452 0.0000030333689184629867 0.000003044808698305257
          0.0000030629555514238027 0.0000030902667698965856 0.0000031291996458015692 0.000002098300321134549 0.000002307488837182998 0.000002461533820172757
          0.0000025727427842510196 0.000002653423243564979 0.0000027101633895108854 0.0000027495514134849854 0.0000027754454605997166 0.0000027917036759675117
          0.0000028004843531750762 0.000002803945785809113 0.000002803326702230898 0.0000027998658308017065 0.000002794271311920832 0.0000027872512859875673
          0.0000027792236390537734 0.0000027706062571713136 0.0000027616641905725185 0.0000027526624894897236 0.000002743802364804053 0.00000273528502739663
          0.0000027273140567909016 0.000002720093032510314 0.000002713895121614075 0.0000027089934911613924 0.0000027058136284384716 0.0000027047810207315198
          0.000002706619207498805 0.000002712051728198596 0.0000027222797207459475 0.0000027385043230559167 0.00000276292253239653 0.000002797731346035815
          0.0000018483243141954648 0.0000020325916550369524 0.0000021682848561825544 0.0000022662452054194846 0.0000023373139905349595 0.0000023872945344478156
          0.000002421990160076888 0.000002444799381613489 0.00000245912071324893 0.0000024668553254082903 0.0000024699043885166504 0.0000024693590579847817
          0.0000024663104892234543 0.0000024613824600135226 0.000002455198748135837 0.000002448127455783606 0.000002440536685150037 0.0000024326599103398475
          0.0000024247306054577563 0.0000024169260106062005 0.000002409423365887617 0.000002402401997864209 0.0000023960412330981796 0.000002390581695542299
          0.000002386264009149339 0.0000023834629717919167 0.000002382553381342652 0.000002384172580111187 0.0000023889579104071653 0.000002397967415443342
          0.000002412259138432476 0.00000243376834261016 0.0000024644302912119903 0.0000015989206689953197 0.0000017583238958162985 0.0000018757073345821516
          0.000001960449403890116 0.000002021928522337432 0.0000020651649414528093 0.000002095178912764959 0.0000021149103719456974 0.0000021272992546668394
          0.0000021339901969181852 0.000002136627834689534 0.0000021361560883340236 0.0000021335188782047927 0.0000021292558126265286 0.0000021239064999239178
          0.000002117789372419957 0.0000021112228624376432 0.000002104408940252885 0.000002097549576141593 0.0000020907980943126085 0.0000020843078189747747
          0.0000020782338792602492 0.000002072731404301189 0.0000020680085494567938 0.000002064273470086264 0.000002061850390710496 0.000002061063535850385
          0.000002062464248029693 0.00000206660386977218 0.0000020743976772274766 0.000002086760946545213 0.0000021053678062122115 0.0000021318923847152954
          0.0000013519249937484276 0.0000014867041673517036 0.0000015859546228604672 0.0000016576060335533793 0.000001709588072709102 0.0000017461454809506148
          0.0000017715229989008978 0.0000017882064112469734 0.0000017986815026758635 0.0000018043388515591824 0.000001806569036268544 0.000001806170163640807
          0.0000018039403405128291 0.0000018003358184017262 0.000001795812848824615 0.0000017906406737924498 0.0000017850885353161854 0.000001779327204009581
          0.000001773527450486394 0.000001767818913967694 0.000001762331233674549 0.0000017571955749331012 0.0000017525431030694897 0.0000017485498183307201
          0.0000017453917209637965 0.0000017433429504190908 0.000001742677646146975 0.000001743861981205589 0.0000017473621286530735 0.0000017539519759791947
          0.0000017644054106737179 0.000001780137947707428 0.0000018025651020511097 0.0000011090525483591137 0.000001219618731127627 0.0000013010389068887328
          0.0000013598181882762524 0.0000014024616879240077 0.0000014324515815641407 0.0000014532700449287937 0.00000146695629310352 0.000001475549541173874
          0.000001480190551011898 0.0000014820200844896358 0.0000014816928690700577 0.000001479863632216134 0.0000014769066601568313 0.0000014731962391211149
          0.000001468953241967877 0.0000014643985415560102 0.0000014596722296696383 0.000001454914398092885 0.0000014502313964451144 0.0000014457295743456937
          0.0000014415165333552749 0.0000014376998750345088 0.000001434423981300555 0.0000014318332340705706 0.0000014301525238210542 0.000001429606741028505
          0.0000014305783110645154 0.0000014334496593006793 0.000001438855644842817 0.0000014474311267967492 0.0000014603373237899256 0.000001478735454449796
          8.718515917536539e-7 9.58770198614876e-7 0.0000010227764622876544 0.0000010689842006992874 0.0000011025072317770732 0.0000011260829735624418
          0.0000011424488440968222 0.00000115320791703157 0.0000011599632660180408 0.0000011636116700730756 0.000001165049908213514 0.0000011647926766830941
          0.0000011633546717255538 0.0000011610301283119754 0.0000011581132814134397 0.0000011547777642395578 0.000001151197209999941 0.0000011474817480524458
          0.0000011437415077549288 0.000001140060092977255 0.000001136521107589291 0.0000011332091396406013 0.0000011302087771807492 0.0000011276335221393618
          0.0000011255968764460649 0.000001124275631651624 0.000001123846579306804 0.0000011246103527489913 0.0000011268675853155731 0.0000011311173542800034
          0.0000011378587369157358 0.0000011480045937632782 0.0000011624677853631377 6.416150262142212e-7 7.055803670457847e-7 7.526840036426733e-7
          7.866893086419832e-7 8.113596546808096e-7 8.287095687327056e-7 8.407535777712236e-7 8.486714194404404e-7 8.536428313844322e-7
          8.563277732773288e-7 8.573862047932592e-7 8.571969023742561e-7 8.561386424623504e-7 8.544279591333644e-7 8.522813864631186e-7
          8.498267050020931e-7 8.471916953007676e-7 8.444574040091608e-7 8.417048777772907e-7 8.389956425571218e-7 8.363912243006184e-7
          8.339538732395318e-7 8.317458396056125e-7 8.298506519996514e-7 8.283518390224378e-7 8.273795055181439e-7 8.270637563309416e-7
          8.276258342371047e-7 8.292869820129072e-7 8.324144817519115e-7 8.373756155476795e-7 8.448421778261289e-7 8.554859630131772e-7
          4.1904300020728336e-7 4.608191856728838e-7 4.915828810269302e-7 5.137919697298736e-7 5.299043352421652e-7 5.412356784008443e-7
          5.491017000429506e-7 5.542728945952872e-7 5.575197564846574e-7 5.592733097216802e-7 5.599645783169756e-7 5.598409436600021e-7
          5.59149787140219e-7 5.580325285889487e-7 5.566305878375134e-7 5.550274192051782e-7 5.533064770112076e-7 5.515206933566175e-7
          5.497230003424235e-7 5.479535809731502e-7 5.462526182533227e-7 5.446607682193655e-7 5.432186869077041e-7 5.419809273977519e-7
          5.410020427689222e-7 5.403670053519999e-7 5.401607874777694e-7 5.405278842608349e-7 5.416127908157998e-7 5.436553814974058e-7
          5.468955306603952e-7 5.517719916696874e-7 5.587235178902027e-7 2.0478201647618638e-7 2.2519760985470758e-7 2.4023151226217804e-7
          2.5108486613655676e-7 2.589588139158026e-7 2.644963251049293e-7 2.683403692089506e-7 2.708674789520646e-7 2.7245418705846944e-7
          2.7331113054161793e-7 2.73648946414963e-7 2.735885274264294e-7 2.7325076632394226e-7 2.7270477352869235e-7 2.720196594618707e-7
          2.712362073934087e-7 2.7039520059323757e-7 2.6952250643625906e-7 2.6864399229737503e-7 2.677792951987816e-7 2.6694805216267513e-7
          2.661701313770844e-7 2.654654010300383e-7 2.6486052065193906e-7 2.6438214977318915e-7 2.6407181350034466e-7 2.6397103693996114e-7
          2.6415043337257054e-7 2.6468061607870426e-7 2.6567880919534253e-7 2.672622368594653e-7 2.6964531334072665e-7 2.7304245290878013e-7
          0 0 0 0 0 0
          0 0 0 0 0 0
          0 0 0 0 0 0
          0 0 0 0 0 0
          0 0 0 0 0 0
          0 0 0
        </DataArray>
        <DataArray type="Float64" Name="displacement_y" format="ascii" RangeMin="0" RangeMax="0.000006292828692448962">
          0 0 0 0 0 0
          0 0 0 0 0 0
          0 0 0 0 0 0
          0 0 0 0 0 0
          0 0 0 0 0 0
          0 0 0 2.047820164762822e-7 2.251976098547976e-7 2.402315122622613e-7
          2.5108486613663316e-7 2.589588139158732e-7 2.6449632510499426e-7 2.6834036920900903e-7 2.7086747895211644e-7 2.724541870585153e-7
          2.7331113054165817e-7 2.7364894641499787e-7 2.735885274264588e-7 2.732507663239658e-7 2.7270477352871013e-7 2.7201965946188315e-7
          2.7123620739341567e-7 2.703952005932387e-7 2.695225064362542e-7 2.686439922973644e-7 2.6777929519876524e-7 2.6694805216265274e-7
          2.6617013137705577e-7 2.6546540103000323e-7 2.648605206518976e-7 2.643821497731413e-7 2.6407181350028997e-7 2.639710369398995e-7
          2.641504333725018e-7 2.646806160786288e-7 2.656788091952606e-7 2.6726223685937717e-7 2.6964531334063237e-7 2.730424529086803e-7
          4.1904300020749295e-7 4.6081918567307724e-7 4.915828810271096e-7 5.137919697300398e-7 5.299043352423172e-7 5.412356784009822e-7
          5.491017000430747e-7 5.542728945953981e-7 5.575197564847554e-7 5.592733097217661e-7 5.599645783170502e-7 5.598409436600651e-7
          5.591497871402691e-7 5.580325285889856e-7 5.566305878375379e-7 5.550274192051906e-7 5.533064770112078e-7 5.515206933566056e-7
          5.497230003423995e-7 5.479535809731146e-7 5.462526182532747e-7 5.446607682193053e-7 5.432186869076314e-7 5.419809273976667e-7
          5.410020427688248e-7 5.403670053518898e-7 5.401607874776464e-7 5.405278842606984e-7 5.416127908156495e-7 5.436553814972416e-7
          5.468955306602174e-7 5.517719916694961e-7 5.587235178899977e-7 6.416150262145537e-7 7.055803670460919e-7 7.526840036429574e-7
          7.866893086422447e-7 8.113596546810493e-7 8.287095687329234e-7 8.407535777714196e-7 8.486714194406154e-7 8.536428313845873e-7
          8.563277732774642e-7 8.573862047933752e-7 8.571969023743525e-7 8.561386424624287e-7 8.544279591334244e-7 8.522813864631605e-7
          8.49826705002117e-7 8.47191695300774e-7 8.444574040091496e-7 8.417048777772625e-7 8.389956425570762e-7 8.363912243005541e-7
          8.339538732394486e-7 8.317458396055118e-7 8.298506519995327e-7 8.283518390222997e-7 8.273795055179858e-7 8.270637563307639e-7
          8.27625834236908e-7 8.292869820126907e-7 8.324144817516745e-7 8.373756155474217e-7 8.448421778258498e-7 8.55485963012877e-7
          8.71851591754106e-7 9.58770198615296e-7 0.0000010227764622880426 0.000001068984200699645 0.000001102507231777402 0.0000011260829735627425
          0.0000011424488440970945 0.0000011532079170318142 0.000001159963266018259 0.0000011636116700732672 0.0000011650499082136787 0.0000011647926766832326
          0.0000011633546717256694 0.000001161030128312069 0.0000011581132814135102 0.0000011547777642396057 0.0000011511972099999663 0.0000011474817480524488
          0.0000011437415077549089 0.0000011400600929772124 0.0000011365211075892235 0.0000011332091396405088 0.0000011302087771806331 0.000001127633522139222
          0.0000011255968764458997 0.0000011242756316514323 0.0000011238465793065868 0.000001124610352748749 0.000001126867585315305 0.0000011311173542797082
          0.000001137858736915413 0.000001148004593762927 0.0000011624677853627584 0.000001109052548359674 0.0000012196187311281497 0.0000013010389068892194
          0.0000013598181882767045 0.000001402461687924426 0.0000014324515815645257 0.0000014532700449291457 0.0000014669562931038402 0.0000014755495411741632
          0.000001480190551012157 0.0000014820200844898641 0.0000014816928690702559 0.0000014798636322163045 0.0000014769066601569743 0.00000147319623912123
          0.0000014689532419679644 0.0000014643985415560706 0.0000014596722296696712 0.000001454914398092889 0.0000014502313964450896 0.0000014457295743456389
          0.0000014415165333551895 0.000001437699875034393 0.000001434423981300409 0.0000014318332340703955 0.0000014301525238208502 0.0000014296067410282702
          0.000001430578311064249 0.0000014334496593003803 0.000001438855644842484 0.0000014474311267963824 0.000001460337323789524 0.0000014787354544493588
          0.0000013519249937490974 0.000001486704167352331 0.0000015859546228610559 0.0000016576060335539305 0.0000017095880727096152 0.0000017461454809510902
          0.0000017715229989013378 0.0000017882064112473787 0.0000017986815026762354 0.0000018043388515595208 0.0000018065690362688499 0.0000018061701636410799
          0.000001803940340513069 0.0000018003358184019335 0.0000017958128488247897 0.0000017906406737925926 0.0000017850885353162968 0.00000177932720400966
          0.000001773527450486439 0.0000017678189139677044 0.000001762331233674526 0.0000017571955749330436 0.0000017525431030693956 0.0000017485498183305908
          0.0000017453917209636356 0.0000017433429504188985 0.0000017426776461467477 0.0000017438619812053248 0.0000017473621286527715 0.000001753951975978854
          0.0000017644054106733392 0.0000017801379477070102 0.0000018025651020506512 0.0000015989206689961117 0.000001758323895817045 0.000001875707334582854
          0.000001960449403890776 0.00000202192852233805 0.0000020651649414533866 0.000002095178912765498 0.000002114910371946199 0.0000021272992546673044
          0.000002133990196918614 0.000002136627834689927 0.00000213615608833438 0.0000021335188782051125 0.000002129255812626811 0.0000021239064999241643
          0.0000021177893724201693 0.0000021112228624378202 0.0000021044089402530265 0.0000020975495761416973 0.000002090798094312676 0.000002084307818974805
          0.0000020782338792602424 0.000002072731404301143 0.00000206800854945671 0.000002064273470086145 0.0000020618503907103404 0.000002061063535850192
          0.0000020624642480294607 0.000002066603869771909 0.0000020743976772271665 0.0000020867609465448625 0.0000021053678062118206 0.0000021318923847148634
          0.0000018483243141963777 0.0000020325916550378185 0.0000021682848561833727 0.000002266245205420257 0.0000023373139905356884 0.0000023872945344485017
          0.0000024219901600775337 0.000002444799381614096 0.000002459120713249498 0.0000024668553254088197 0.000002469904388517141 0.0000024693590579852328
          0.000002466310489223867 0.000002461382460013896 0.0000024551987481361727 0.0000024481274557839054 0.000002440536685150298 0.0000024326599103400707
          0.0000024247306054579414 0.000002416926010606347 0.0000024094233658877254 0.000002402401997864279 0.000002396041233098211 0.000002390581695542291
          0.00000238626400914929 0.000002383462971791828 0.0000023825533813425237 0.000002384172580111019 0.0000023889579104069577 0.000002397967415443095
          0.000002412259138432187 0.0000024337683426098307 0.0000024644302912116205 0.0000020983003211355694 0.0000023074888371839734 0.000002461533820173686
          0.0000025727427842519027 0.0000026534232435658193 0.0000027101633895116833 0.0000027495514134857426 0.0000027754454606004327 0.0000027917036759681906
          0.0000028004843531757166 0.0000028039457858097117 0.0000028033267022314556 0.0000027998658308022266 0.0000027942713119213155 0.0000027872512859880125
          0.00000277922363905418 0.0000027706062571716795 0.0000027616641905728468 0.000002752662489490013 0.0000027438023648043035 0.000002735285027396842
          0.000002727314056791074 0.000002720093032510446 0.000002713895121614166 0.0000027089934911614424 0.000002705813628438481 0.000002704781020731488
          0.000002706619207498731 0.00000271205172819848 0.00000272227972074579 0.0000027385043230557155 0.000002762922532396287 0.0000027977313460355287
          0.000002346901760594143 0.000002580874415350292 0.0000027531702674494683 0.000002877554994916888 0.000002967794275777767 0.0000030312568540728496
          0.000003075311473842881 0.0000031042733837039985 0.00000312245783227234 0.0000031322788224279923 0.0000031361503570510426 0.0000031354579259794823
          0.0000031315870190513012 0.0000031253296753912603 0.0000031174779341241196 0.000003108499191409032 0.0000030988608434051494 0.000003088859342841683
          0.000003078791142447845 0.000003068881292072984 0.0000030593548415664472 0.0000030504394900507986 0.0000030423629366486003 0.000003035430712577542
          0.000003029948349055313 0.0000030263917440508775 0.0000030252367955332005 0.0000030272927661285 0.000003033368918462991 0.000003044808698305217
          0.000003062955551423718 0.000003090266769896458 0.0000031291996458013956 0.0000025921138137248812 0.0000028505327047966964 0.0000030408305970104796
          0.0000031782114519309956 0.000003277879231123013 0.0000033479725893604646 0.000003396630181417285 0.0000034286181273481618 0.0000034487025472077833
          0.0000034595496668761235 0.0000034638257122331563 0.000003463060933674585 0.000003458785581596111 0.0000034518744499881722 0.0000034432023328412044
          0.000003433285461409944 0.00000342264006694913 0.000003411593576548983 0.0000034004734172997225 0.000003389528153002813 0.000003379006347459715
          0.0000033691594905499303 0.0000033602390721529584 0.0000033525825463979796 0.000003346527367414177 0.000003342599156563292 0.000003341323535207067
          0.0000033435943204057523 0.0000033503053292195968 0.000003362940375071512 0.000003382983271384411 0.000003413148056234622 0.000003456148767698472
          0.0000028318871003315873 0.000003114210013867461 0.000003322110663648665 0.0000034721993938664785 0.0000035810865487121783 0.0000036576636171883985
          0.000003710822088297774 0.0000037457689532727236 0.000003767711203345665 0.0000037795616931281875 0.0000037842332772318812 0.0000037833977558427237
          0.000003778726929146694 0.000003771176510509407 0.000003761702213296479 0.0000037508680207031445 0.0000037392379159246365 0.0000037271696134055093
          0.0000037150208275903187 0.000003703063114696713 0.000003691568030942341 0.0000036808103292882234 0.00000367106476269538 0.0000036627000001591
          0.000003656084710674672 0.00000365179313613923 0.0000036503995184499066 0.0000036528803536963322 0.0000036602121379681345 0.0000036740159390090965
          0.000003695912824563001 0.0000037288678841168545 0.000003775846207157661 0.000003064171433387403 0.0000033696517636400445 0.0000035946053756564658
          0.0000037570050700344545 0.0000038748236473718005 0.000003957681917268914 0.000004015200689326205 0.000004053014056013816 0.00000407675610980189
          0.000004089578630960689 0.000004094633399760478 0.0000040937293450853245 0.000004088675395819296 0.0000040805056573097005 0.000004070254234903843
          0.000004058531372278296 0.000004045947313109633 0.0000040328891132173425 0.000004019743828420914 0.00000400680528922107 0.000003994367326118531
          0.000003982727228568905 0.0000039721822860277956 0.000003963131407407785 0.00000395597350162145 0.000003951329912512916 0.00000394982198392631
          0.000003952506308627038 0.000003960439479380503 0.000003975375531321623 0.000003999068499585306 0.0000040347266838606405 0.000004085558383836706
          0.0000032869716628286705 0.000003614663899024042 0.000003855974205651315 0.0000040301822110051355 0.000004156567543380151 0.0000042454505550208435
          0.000004307151598171698 0.0000043477144281178555 0.00000437318280014446 0.000004386937664913385 0.000004392359973086507 0.000004391390183320031
          0.000004385968754270164 0.0000043772049825434604 0.000004366208164746478 0.00000435363291623476 0.000004340133852363852 0.00000432612617232814
          0.000004312025075322006 0.000004298145756676569 0.000004284803411722944 0.000004272316946252626 0.000004261005266057106 0.000004251296285278986
          0.0000042436179180608656 0.000004238636687034689 0.000004237019114832402 0.000004239898620570572 0.000004248408623365766 0.00000426443069672306
          0.000004289846414147528 0.00000432809735532657 0.000004382625099947584 0.000003498365112274502 0.000003847132063822494 0.000004103961645739527
          0.0000042893734079098664 0.000004423886900217777 0.000004518486202826401 0.000004584155395898882 0.000004627326923887292 0.000004654433231243697
          0.000004669072706106211 0.000004674843736612946 0.000004673811577217247 0.000004668041482372461 0.000004658714090351631 0.000004647010039427798
          0.000004633626044923369 0.00000461925882216075 0.0000046043502728431675 0.0000045893422986738555 0.000004574570365991752 0.000004560369941135801
          0.0000045470804395343956 0.0000045350412766159336 0.000004524707886762297 0.000004516535704355364 0.000004511234117780959 0.000004509512515424904
          0.000004512577209449798 0.000004521634512018237 0.0000045386870053796466 0.000004565737271783445 0.000004606448227599026 0.000004664482789195791
          0.0000036965746561966657 0.000004065101963277261 0.000004336482934961773 0.000004532399712943325 0.000004674534438915047 0.000004774493526458593
          0.000004843883389155623 0.000004889500919376088 0.000004918143009489936 0.000004933611924260167 0.000004939709928449783 0.0000049386192892109565
          0.000004932522273695863 0.000004922666412501855 0.000004910299236226286 0.000004896156934523676 0.000004880975697048545 0.0000048652224626664065
          0.000004849364170242779 0.000004833755292889169 0.000004818750303717084 0.000004804707848674064 0.000004791986573707651 0.00000478106771709332
          0.000004772432517106552 0.000004766830554492713 0.000004765011409997175 0.0000047682497427320115 0.000004777820211809295 0.0000047958388613103556
          0.000004824421735316526 0.00000486743928284737 0.000004928761952922456 0.000003879964469212577 0.000004266774689590618 0.000004551619072752524
          0.0000047572554275375554 0.000004906441562784974 0.000005011359694870778 0.000005084192040170969 0.000005132072689931953 0.000005162135735400136
          0.000005178372074516195 0.000005184772605220808 0.0000051836278585596786 0.000005177228365578501 0.000005166883547793727 0.000005153902826721806
          0.000005139058914932563 0.000005123124524995821 0.000005106589760960867 0.000005089944726876989 0.000005073561481529917 0.000005057812083705382
          0.000005043072972042636 0.000005029720585180935 0.00000501826003598387 0.000005009196437315038 0.000005003316557177071 0.000005001407163572604
          0.000005004806152398563 0.00000501485141955187 0.000005033763987631675 0.000005063764879237124 0.000005108916559237056 0.0000051732814925003045
          0.000004047122451615933 0.000004450597364808758 0.0000047477135130257884 0.000004962209164963524 0.0000051178225893184616 0.0000052272608409610725
          0.000005303230974761832 0.00000535317443537424 0.0000053845326674518005 0.000005401468506192103 0.000005408144786792731 0.000005406950721756723
          0.000005400275523587111 0.000005389485026754781 0.000005375945065730616 0.000005360461643356853 0.000005343840762475737 0.000005326593641970126
          0.000005309231500722887 0.000005292142426686114 0.000005275714507811899 0.000005260340400600235 0.000005246412761551115 0.000005234458464976679
          0.0000052250043851890705 0.000005218871186004401 0.000005216879531238778 0.000005220424956486751 0.000005230902997342867 0.000005250630363276477
          0.000005281923763756929 0.000005329020684181326 0.000005396158609946769 0.000004196831622362287 0.000004615231681851978 0.000004923338605044865
          0.0000051457687750419415 0.000005307138574944201 0.000005420625112769764 0.000005499405496536749 0.000005551196441173173 0.000005583714661607056
          0.000005601276982595935 0.000005608200228897346 0.00000560696199359259 0.000005600039869762963 0.000005588850216158872 0.000005574809391530724
          0.000005558753213982981 0.0000055415175016201044 0.000005523632384083387 0.000005505627991014124 0.00000548790676632378 0.0000054708711539238185
          0.000005454928335271089 0.0000054404854918224426 0.000005428088987766419 0.0000054182851872915615 0.000005411925111807759 0.000005409859782724907
          0.00000541353635860649 0.000005424401998015997 0.000005444859109004338 0.000005477310099622429 0.000005526149206250919 0.000005595770665270456
          0.000004328152984188595 0.000004759645030811592 0.000005077392803193297 0.000005306782945727727 0.0000054732021028088925 0.000005590239702015377
          0.00000567148517092576 0.000005724896685075577 0.000005758432420000364 0.0000057765442764761754 0.000005783684155279061 0.000005782407174853922
          0.000005775268453645654 0.000005763728669113796 0.000005749248498717883 0.0000057326899138088245 0.00000571491488573753 0.000005696470132217607
          0.000005677902370962667 0.0000056596266385939245 0.000005642057971732599 0.000005625616292785913 0.000005610721524161093 0.000005597937126107648
          0.0000055878265588750885 0.000005581267472840237 0.000005579137518379917 0.0000055829291365112455 0.000005594134768251343 0.000005615231994430328
          0.0000056486983958783164 0.000005699065707250282 0.0000057708656632011955 0.000004440373508608958 0.000004883053298348115 0.000005209039647734794
          0.000005444377427098545 0.000005615111506768913 0.000005735183661548569 0.000005818535666240186 0.000005873332036274227 0.000005907737287081162
          0.00000592631874849918 0.000005933643750366471 0.000005932333660341596 0.000005925009846083126 0.000005913170857554436 0.000005898315244718904
          0.000005881327328155246 0.0000058630914284421805 0.000005844168438612152 0.000005825119251697611 0.00000580636966540596 0.000005788345477444605
          0.000005771477497985805 0.000005756196537201828 0.0000057430806647621665 0.000005732707950336312 0.00000572597880005531 0.000005723793620050205
          0.0000057276835474087535 0.0000057391797192187105 0.000005760823955125474 0.000005795158074774441 0.000005846831311818747 0.000005920492899911535
          0.000004533081299301816 0.0000049850035244377545 0.0000053177959396179545 0.000005558047189785181 0.000005732345919882195 0.00000585492498633753
          0.000005940017245579713 0.000005995957674867739 0.000006031081251460608 0.000006050050663629266 0.000006057528599644669 0.000006056191157066761
          0.000006048714433455487 0.000006036628266064829 0.000006021462492148766 0.000006004119895464156 0.00000598550325976786 0.000005966185188628331
          0.000005946738285614025 0.000005927597238397267 0.000005909196734650385 0.000005891976579162694 0.000005876376576723511 0.00000586298686615863
          0.00000585239758629385 0.00000584552794227858 0.000005843297139262233 0.000005847268281989424 0.000005859004475204766 0.000005881100607621657
          0.0000059161515679534884 0.000005968903658304863 0.000006044103180780391 0.0000046060947789505515 0.000005065296029546354 0.000005403448668960273
          0.0000056475696003899695 0.000005824675727033104 0.000005949229151233876 0.000006035691975336489 0.00000609253342649583 0.000006128222731866791
          0.000006147497680754857 0.0000061550960624655175 0.000006153737077953918 0.000006146139928175212 0.000006133859091181512 0.000006118449045024928
          0.000006100827114428853 0.000006081910624116677 0.000006062281400473794 0.000006042521269885591 0.000006023071921456192 0.000006004375044289711
          0.000005986877527027684 0.000005971026258311649 0.000005957420882221402 0.000005946661042836738 0.000005939680750769853 0.0000059374140166329396
          0.0000059414491218019015 0.000005953374347652639 0.00000597582637827828 0.000006011441897771952 0.000006065043656024916 0.000006141454402928428
          0.000004659524234996588 0.000005124052096140685 0.00000546612721488957 0.000005713079883224928 0.000005892240393128443 0.0000060182386034275464
          0.0000061057043729496705 0.000006163205169598488 0.000006199308461277667 0.0000062188069943697 0.000006226493515257079 0.000006225118766892006
          0.0000062174334922266795 0.000006205010200838995 0.000006189421402306844 0.000006171595062072789 0.000006152459145579385 0.000006132602228241033
          0.000006112612885472135 0.0000060929379298511855 0.000006074024173956678 0.000006056323690217755 0.000006040288551063564 0.000006026525356283352
          0.000006015640705666373 0.000006008579444095788 0.000006006286416454765 0.000006010368327754418 0.000006022431883005863 0.0000060451443511259525
          0.000006081173001031533 0.000006135396525210725 0.000006212693616151643 0.000004693689594111157 0.0000051616235457470865 0.0000055062068860839135
          0.000005754970302936217 0.000005935444484118574 0.000006062366560007034 0.000006150473660977643 0.000006208396074784943 0.000006244764089183474
          0.000006264405592749012 0.000006272148474057333 0.000006270763645527744 0.000006263022019579552 0.000006250507636013851 0.00000623480453463174
          0.000006216847485062426 0.0000061975712569351215 0.000006177568741317367 0.000006157432829276706 0.000006137613609587108 0.000006118561171022538
          0.000006100730900774789 0.000006084578186035651 0.0000060707140744089155 0.000006059749613498373 0.000006052636576140153 0.000006050326735170382
          0.00000605443857655697 0.000006066590586267829 0.000006089469590624343 0.0000061257624159479 0.000006180383527108635 0.000006258247388976689
          0.0000047091653957888914 0.000005178642196155392 0.000005524361679675091 0.000005773945306987689 0.000005955014538732891 0.000006082355095825674
          0.000006170752699181023 0.000006228866091912316 0.00000626535401713293 0.000006285060281694576 0.000006292828692448962 0.000006291439297931061
          0.000006283672146675849 0.000006271116501302278 0.000006255361624429294 0.000006237345367762393 0.000006218005583007066 0.000006197937116082028
          0.000006177734812905984 0.000006157850246263396 0.000006138734988938719 0.000006120845929603921 0.000006104639956930965 0.000006090730133239646
          0.000006079729520849752 0.000006072593030735837 0.000006070275573872448 0.0000060744009726195465 0.000006086593049337098 0.000006109547489217627
          0.000006145959977453662 0.0000062007611826463675 0.000006278881773396912 0.000004706695780531374 0.000005175926374410861 0.000005521464553168241
          0.000005770917291993211 0.0000059518915660754645 0.000006079165342293193 0.0000061675165875245946 0.000006225599504001124 0.000006262068293954238
          0.0000062817642240107255 0.000006289528560797376 0.000006288139894915603 0.0000062803768169668125 0.000006267827756117124 0.0000062520811415326515
          0.000006234074333083776 0.0000062147446906408745 0.0000061946867481691685 0.000006174495039633876 0.000006154620901002323 0.0000061355156682418335
          0.000006117635990419445 0.0000061014385166021906 0.0000060875359876031975 0.000006076541144235593 0.000006069408396692472 0.000006067092155166927
          0.000006071215390442019 0.000006083401073300807 0.000006106343475244697 0.0000061427368677750916 0.000006197509333715522 0.000006275588955889521
          0.00000468722282025075 0.000005154512071596222 0.000005498620659077451 0.000005747041339851691 0.0000059272668710762005 0.000006054014078910639
          0.0000061419997895146765 0.000006199842400184819 0.0000062361603082175826 0.000006255774750521014 0.000006263506964003164 0.000006262124043433356
          0.00000625439308358091 0.000006241895941821562 0.000006226214475531048 0.0000062082821664511495 0.0000061890324963236425 0.000006169057539354962
          0.000006148949369751545 0.0000061291574561734185 0.000006110131267280615 0.000006092325562851049 0.000006076195102662632 0.000006062350092442712
          0.000006051400737918646 0.000006044297500612816 0.000006041990842047606 0.000006046097018307047 0.000006058232285475174 0.0000060810797680737744
          0.000006117322590624638 0.000006171868447048852 0.0000062496250312675024 0.0000046518114262497305 0.000005115570364567316 0.000005457079253841312
          0.000005703623146817503 0.000005882487096241671 0.000006008276744455279 0.000006095597733799792 0.000006153003350636295 0.00000618904688132587
          0.000006208513138922567 0.000006216186936480432 0.0000062148144637069174 0.000006207141910309476 0.00000619473918292524 0.00000617917618819134
          0.000006161379355509403 0.000006142275114281054 0.000006122451065664665 0.00000610249481081861 0.000006082852422722282 0.000006063969974355069
          0.000006046298789840495 0.000006030290193302084 0.000006016549780437698 0.000006005683146945199 0.000005998633573726649 0.000005996344341684101
          0.000006000419496284952 0.000006012463082996589 0.0000060351379556638695 0.000006071106968131648 0.000006125240737294925 0.0000062024098800487
          0.000004601676173620724 0.000005060436914589486 0.000005398265165747383 0.000005642151913102162 0.000005819088142661571 0.000005943522083342104
          0.000006029901964060259 0.0000060866888874806045 0.00000612234395626772 0.000006141600414787794 0.000006149191507407024 0.000006147833826563713
          0.000006140243964696161 0.000006127974908652914 0.0000061125796452825205 0.00000609497461932303 0.0000060760762755124945 0.000006056465882092967
          0.000006036724707306498 0.000006017294016546904 0.000005998615075208003 0.000005981134343233137 0.000005965298280565651 0.000005951705956049563
          0.000005940956438528891 0.000005933982842623785 0.000005931718282954398 0.0000059357495172656885 0.000005947663303302606 0.00000597009379579948
          0.000006005675149490639 0.000006059225487825801 0.000006135562934254696 0.000004538063151186825 0.0000049904820384004935 0.000005323640192114054
          0.000005564155478165362 0.0000057386457623922705 0.000005861359543118501 0.000005946545318667769 0.0000060025472264308235 0.000006037709403798409
          0.000006056699663331248 0.000006064185817590056 0.000006062846905163332 0.0000060553619646395685 0.000006043262514562365 0.000006028080073475311
          0.000006010718417293714 0.000005992081321932886 0.000005972742020252027 0.0000059532737451103415 0.000005934111661901478 0.000005915690936019085
          0.00000589845185559751 0.000005882834708771097 0.000005869430282927635 0.0000058588293654549095 0.0000058519521717078835 0.000005849718917041522
          0.000005853694424051001 0.000005865443515331498 0.00000588756393137651 0.000005922653412679532 0.0000059754634775264125 0.000006050745644203001
          0.00000446214609458393 0.000004906996486367573 0.000005234581252158033 0.00000547107296869794 0.000005642644212729926 0.000005763305120083301
          0.000005847065826587373 0.00000590213088092994 0.000005936704831798797 0.000005955377404126207 0.000005962738322844435 0.000005961421809024731
          0.0000059540620837383435 0.000005942165044823353 0.0000059272365901178356 0.000005910165376310042 0.000005891840060088225 0.000005872824284724597
          0.000005853681693491369 0.000005834840171919671 0.000005816727605540631 0.000005799776916927969 0.000005784421028655402 0.00000577124084485477
          0.0000057608172696579166 0.000005754055124178062 0.000005751859229528428 0.000005755768230456647 0.000005767320771710354 0.000005789071136298029
          0.000005823573607228153 0.0000058755002148488295 0.000005949522989508166
        </DataArray>
        <DataArray type="Float64" Name="s_xx" format="ascii" RangeMin="-243681902.4455394" RangeMax="33346066.11115034">
          -10606215.520262375 3242295.9684793507 3205707.634176226 -1996659.4836381082 -3645484.3454300105 -3694798.032257421
          -4098631.625178281 -4523346.9721838925 -4635305.921265557 -4566490.822492588 -4448884.025934299 -4280180.381164759
          -4058074.737758036 -3800369.631251265 -3524867.597181582 -3236442.6963144434 -2939968.9894153057 -2639406.4340152927
          -2338714.9876455264 -2040119.0395845731 -1745842.9791109995 -1456036.1570718698 -1170847.92431425 -895511.7578972372
          -635261.1348799297 -374179.8403529842 -96351.65940705744 125509.21913738178 218688.60645986476 503573.9508527117
          1300552.7006082428 1038479.6305798326 -1853790.4843791444 -11265643.554034468 2957166.4827034813 3026029.1485943412
          -2185036.985839594 -3802013.350076032 -3807733.0006986912 -4185028.9942912916 -4592229.577077139 -4687662.995279541
          -4604186.512917245 -4474657.394009 -4295964.351528375 -4064996.0984489415 -3799426.889247722 -3516930.978401739
          -3222231.694272254 -2920052.365220528 -2614305.90975027 -2308905.246365191 -2006079.280287057 -1708056.9167376345
          -1415025.73342858 -1127173.308071551 -849935.8633501278 -588749.6219478912 -327656.27849717805 -50697.52763032564
          167774.52454325467 253407.7719141514 531287.0086266169 1326497.0288249033 1040117.2687801119 -1926772.8352366558
          -12902245.035803357 1948158.0632599897 2345434.9932688 -2692335.803671182 -4147075.8854542123 -4015711.1360897874
          -4295167.439587402 -4631704.464204688 -4671581.878199273 -4545289.258025933 -4383316.180139448 -4180140.250628305
          -3930239.075581001 -3650203.777965778 -3356625.480750878 -3053572.455365562 -2745112.9732390903 -2434861.640716486
          -2126433.06414277 -1821984.5223347994 -1523673.294109427 -1231799.7500623951 -946664.2607894468 -674130.2986073185
          -420061.33583274763 -168981.25687702707 94586.05384854999 294008.4918412698 352653.9525984185 597840.110750345
          1356884.6409273986 1005218.1367114929 -2081728.8083154582 -15582630.933557238 165327.48067957984 1129313.1542271525
          -3540374.853143396 -4693437.481660944 -4325067.626930082 -4430458.184555405 -4639505.84757112 -4582107.30901144
          -4382911.8020805055 -4166568.559982458 -3923428.890469015 -3643844.1012918907 -3342300.7251675995 -3033285.2948126555
          -2719671.763835431 -2404334.0858442984 -2090319.7927125294 -1780676.4163133982 -1477408.1117792854 -1182519.0342425697
          -896502.0317274625 -619849.9522581744 -359093.1747230014 -120762.0780102403 109576.07959329593 346354.039800794
          509977.3954674099 520851.7394483 705876.4452148564 1391950.8862384718 931214.2423401936 -2324194.306658931
          -19370236.31790976 -2438952.917508044 -655349.2410512511 -4749941.414497153 -5453245.563803522 -4741819.8531461395
          -4592222.446700793 -4613447.326719918 -4414488.475455955 -4110462.052943026 -3816484.219215255 -3516959.7368620955
          -3196293.3684730036 -2865781.9986881125 -2536722.5121475575 -2210221.951915683 -1887387.3610568347 -1570413.7397942191
          -1261496.088351044 -962398.8232431331 -674886.3609863102 -399728.5899720686 -137695.3985919027 103761.85682487472
          317191.81994895043 515387.40241278365 711141.5158488336 821177.2296550812 762217.6132295069 857912.6905774241
          1431912.4857041466 815651.5436459633 -2659435.590560835 -24318767.16786994 -5905170.957216157 -3036630.2284981385
          -6338656.362540395 -6436760.740167434 -5271022.742883554 -4781521.752193056 -4551605.898789093 -4164623.3133648196
          -3722275.548341789 -3326264.1561415535 -2953137.939909371 -2579445.702790493 -2212155.3603047617 -1858234.827972013
          -1516423.272181047 -1185459.85932066 -866387.3670950156 -560248.5732082776 -268477.1625579927 7493.179958291575
          266526.8226468442 507488.13381393324 721738.5471070416 900639.4961736522 1054717.4230205452 1194498.7696545
          1232272.7365152235 1080328.52404242 1056078.321757331 1476934.3191811973 656431.0606452591 -3091896.9095192403
          -30453876.889746554 -10253204.872845413 -6028361.111659211 -8315007.648694354 -7648806.526457251 -5914961.606325365
          -4998676.74967616 -4452828.001988772 -3830291.408742344 -3215374.081879438 -2692383.133342617 -2228058.6669193087
          -1789140.7863969381 -1377101.8305975306 -993414.1383431111 -633833.9780590623 -294117.61817076604 26151.20046916721
          327388.73700812686 608585.2704765694 868731.0799049508 1106234.0778082923 1319502.1767016146 1498437.694145358
          1632942.947699963 1730635.8041061293 1799134.1301045555 1745530.235227467 1476916.4290070878 1301386.5326215401
          1527034.3672489454 452480.5419398006 -3623654.334255392 -37782022.32122356 -15488813.564465107 -9634611.559301434
          -10681231.381928828 -9090488.10854356 -6674030.3336894065 -5243506.65191014 -4316493.6084179785 -3410567.7484251354
          -2588625.787755087 -1913564.442231308 -1340350.442469513 -823950.5190854174 -359166.0411481709 59201.62227307679
          438998.36411772977 788070.077325192 1108601.1204425644 1402775.8520169472 1670102.518642963 1910089.3669152316
          2120596.590342696 2299484.3824342974 2434922.801014534 2515081.903907905 2544023.513206507 2525809.4510024358
          2361573.6510296105 1952450.0470219473 1594086.7564155613 1582131.8966465655 203432.40820141786 -4255164.768433422
          -46277028.04698375 -21593754.722689968 -13842857.628654838 -13428936.192761812 -10756589.842894342 -7545407.526411709
          -5514978.1906731995 -4142889.532102412 -2906729.2471229457 -1844037.2656080674 -992353.5174310438 -292948.11479214684
          312908.83010835235 838239.6471782436 1296066.6663253168 1698444.7664059217 2057428.8262764069 2377274.327361973
          2662236.75108782 2912434.591220788 3127986.3415277144 3306115.1424151883 3444044.1342897993 3527944.2746506114
          3543986.520996687 3492040.9901502174 3371977.7989333896 3078235.020592052 2505250.7283720477 1933130.10705418
          1641978.3414192505 -89883.08065977822 -4984132.671309941 -55890262.86728125 -28533243.66375565 -18629136.276878938
          -16542414.012397757 -12637550.176058725 -8524065.438300196 -5811480.469560515 -3932937.9791424614 -2321580.6763488157
          -985788.0022207324 66060.60220063354 908236.703154314 1615011.866879341 2208340.4798860066 2710176.9286846034
          3137367.9605440805 3506760.3227333855 3824971.88542052 4098620.5187734817 4328523.794990262 4515499.286268844
          4656047.382981137 4746668.475499044 4771279.065982238 4713795.656590392 4569284.674866371 4332812.548353036
          3891423.3091571904 3132160.9893856333 2316574.4564266293 1706212.5776684433 -425808.01149821223 -5806370.675682624
          -66537476.111396335 -36246270.71578251 -23951351.078972585 -19994352.917807728 -14716911.94912907 -9601473.101433849
          -6130481.3032193 -3688562.647206266 -1660343.22611559 -21496.741372733984 1252303.1055968385 2252578.150591156
          3070850.229408248 3739035.375282123 4289049.621446792 4743072.291198064 5123282.707831749 5438931.576528082
          5699269.602467294 5905896.088077115 6060410.335785272 6158510.6346033 6195895.273542736 6153990.654196996
          6014223.178159497 5766286.072708162 5399872.565120918 4793998.131275222 3827678.2470485345 2741060.7041045283
          1774293.2941068795 -801373.5316494431 -6714689.321869467 -78111241.49456303 -44654725.54130689 -29755578.007848915
          -23749886.049257424 -16973736.820600756 -10766829.198195415 -6468862.058357896 -3412355.2184984824 -929828.49602746
          1038961.058840962 2554256.395892573 3726363.7696438935 4665589.434611442 5414739.418648027 6016619.749606457
          6499228.961473442 6890565.588235687 7202756.878024524 7447930.07897128 7628540.908775873 7747045.0851382185
          7798267.554454439 7777033.263120654 7662067.918308292 7432097.2271887865 7070926.481636219 6562360.973524662
          5776832.401415843 4584772.463871483 3202308.0814768723 1845566.174817296 -1212752.9817918644 -7699949.114035229
          -90470639.35166466 -53655805.73646111 -35970816.77159424 -27763231.035175692 -19380607.10531711 -12006046.071195772
          -6822649.021988946 -3107863.2329624174 -139135.97938196466 2182459.5685952473 3955850.240812052 5311431.568762224
          6379599.083939538 7214843.489364395 7871655.488057194 8384268.211656101 8786914.791799285 9094807.448560651
          9323158.402014108 9475343.926412648 9554740.29600926 9555238.5321051 9470729.656001318 9277060.863109732
          8950079.34884216 8467260.247963766 7806078.69523971 6827929.4001939725 5394207.07235053 3694703.6645193836
          1919211.1295105352 -1654882.820106941 -8750190.471763972 -103454675.4447833 -63131859.16483312 -42515793.08342544
          -31982056.549294572 -21906228.91117479 -13303078.436135428 -7187373.391245798 -2779229.08301158 701239.1820615473
          3393899.3661010466 5438619.431234379 6986926.810548719 8190348.937131245 9115702.640399128 9829804.74976955
          10373456.793034067 10787460.297984239 11090280.457470838 11300382.464344645 11422115.18854921 11459827.500028089
          11406428.101865767 11254825.697146736 10977848.54616633 10548324.909219889 9937040.784820033 9114782.171479383
          7933568.903987217 6245420.8171328185 4211836.461078209 1994314.385985409 -2121951.662869544 -9851767.940210612
          -116876495.64688584 -72946124.10532056 -49296013.13452573 -36345597.56081018 -24514312.21048267 -14639354.481539542
          -7557921.771977111 -2431352.8452711436 1579013.5351025895 4655648.636866365 6981023.727742457 8728536.123675909
          10071583.14061177 11089770.80672921 11862705.150207413 12437995.00254024 12863249.19522156 13160306.845266713
          13351007.069691027 13440709.269045189 13434772.843879864 13325089.945810901 13103552.726454157 12739873.434753774
          12203764.319653902 11459060.289629802 10469596.253156735 9077811.881780278 7126146.8470460065 4746267.269056669
          2069839.2679150216 -2607187.3113785787 -10988862.623823773 -130536005.69649947 -82951988.38939987 -56210163.05566815
          -40788762.25591802 -27166018.550763167 -15995024.767309144 -7928873.7326614885 -2069551.5121435402 2480955.828921371
          5948745.385641186 8559914.253123848 10510141.164052308 11995104.851109527 13107472.189705193 13939910.055249
          14546971.726784226 14983210.483354142 15273909.837984325 15444353.30370034 15500933.599042166 15450043.442549778
          15282539.373829989 14989277.93248961 14536804.658248248 13891665.090825519 13010585.306285128 11850291.380690794
          10243578.580251219 8023242.1711751055 5290030.938813395 2144693.66851702 -3103317.0448962157 -12144548.606608517
          -144219616.4471288 -92992795.62462173 -63149974.38754944 -45242048.22668643 -29819912.6328072 -17348938.660940286
          -8294497.366114231 -1699568.866109123 3392866.721294958 7252869.694696018 10150500.352692058 12303781.701856896
          13930736.74876434 15137160.13382271 16028846.497440329 16667321.93741161 17114112.551530953 17397962.742483824
          17547616.912955675 17570507.674771525 17474067.6397564 17248114.88025969 16882467.468630802 16340503.004346415
          15585599.086883219 14567326.761512399 13235257.073505145 11412626.27470066 8922670.616938144 5834626.284855641
          2217729.4630912 -3602557.441230741 -13300772.020985741 -157710042.80976218 -102909037.58396739 -70005195.36028531
          -49634731.78004592 -32433862.48457915 -18679613.385179486 -8649010.393141411 -1327309.621510384 4300232.81666813
          8547278.673571503 11727489.701377103 14080941.135388426 15847708.210908962 17146571.619802803 18096312.05393404
          18765346.014697127 19222090.003486503 19498710.809077967 19627375.22024732 19616545.786008645 19474685.055376027
          19190586.272288654 18753042.680685695 18122312.996068798 17258655.933939584 16104555.059134224 14602493.936488898
          12566386.58122511 9810147.00856436 6371406.059501357 2287794.5750308107 -4096972.1566308457 -14439178.847267175
          -170791549.2226948 -112542205.17547667 -76666252.70118974 -53896575.31341212 -34966056.52572188 -19965752.563584153
          -8986719.65246412 -958696.753249883 5188577.17317045 9811307.358213322 13265699.033295171 15813235.057461496
          17715398.289757796 19103606.265330005 20109276.519324075 20807523.416279826 21273461.320737056 21542586.21561159
          21650394.08381924 21606351.003930334 21419923.054515198 21078908.67465061 20571106.30341333 19853754.722403724
          18884092.713222153 17597697.11754701 15930144.777056688 13686413.735702598 10671482.037436137 6891785.703595705
          2353760.7555196993 -4578663.554000092 -15541557.97217188 -183255164.15299267 -121738619.44349003 -83026899.88237007
          -57959524.97552773 -37376014.22885807 -21186761.04073472 -9302158.8095314 -599528.4604934957 6043809.0811336
          11024868.052748479 14740662.69174973 17473097.179855913 19504075.698785596 20977102.07541666 22035680.136626992
          22761322.76693921 23235542.850875933 23497019.31568533 23584431.08861557 23508205.396047883 23278769.464363497
          22882972.83061435 22307665.031852372 21507212.16013064 20435980.3075022 19022930.279128622 17197022.88017146
          14754830.422110613 11492925.216425983 7387450.844315784 2414550.886978218 -5039963.557565016 -16590281.391292222
          -194908387.28399 -130356564.79437816 -88989148.22314277 -61760871.1917265 -39626467.32157204 -22323702.89217296
          -9590344.183022784 -255211.22709684767 6852875.942629521 12169380.664901301 16129766.278463477 19035057.019347675
          21186277.12358552 22738280.3050028 23845920.277425323 24596710.57817698 25078164.744581666 25331949.43241762
          25399731.297463056 25292841.57599945 25022611.504308254 24575002.25683067 23935975.0080079 23057214.854693662
          21890406.89374169 20358288.13649029 18383595.59427778 15755157.823756084 12261803.381577127 7850743.556697731
          2469189.638074731 -5473789.140796921 -17569123.54642227 -205574785.60482204 -138265999.04179978 -94463067.047208
          -65243118.0609933 -41683280.52310226 -23359259.917468827 -9846761.728026949 69232.06177561868 7603739.468491117
          13227737.462854449 17412203.015600525 20475690.259412296 22736753.326972727 24360688.67998747 25512792.7801622
          26286091.505281337 26773610.73312927 27019764.65979577 27068967.48137058 26933383.73897656 26625177.973736595
          26129496.96103093 25431487.476239797 24480386.01620294 23225429.077760115 21583615.502549738 19471944.132210195
          16672281.57068468 12966494.421916343 8274646.240897448 2516800.582620253 -5873628.420983857 -18463226.63798349
          -215106412.01480806 -145357682.84237853 -99373095.06596224 -68358027.17625304 -43517857.66394484 -24278956.34149923
          -10067693.021377884 369505.2583898837 8286211.459774737 14185495.17111022 18570425.98072988 21775255.250582762
          24134234.342617873 25822051.668971244 27013395.641778886 27806240.14457719 28298559.06090255 28537236.111205
          28569155.015934564 28407231.486260112 28064381.2333505 27525021.865303338 26773570.990216244 25757082.980956983
          24422612.2103933 22681983.654984288 20447022.29118902 17493513.907075804 13597244.290712953 8653275.746824326
          2556670.5801337883 -6233995.927441912 -19260148.49398602 -223377774.0013946 -151538761.21887773 -103654987.13164085
          -71064655.70167527 -45105970.890972316 -25070560.32055047 -10250051.611428224 641879.020060436 8891555.357581487
          15030303.798237985 19589450.739133008 22916906.135086585 25360579.94091876 27103379.3712371 28328211.640649177
          29137369.63746964 29633146.25001311 29864584.50297681 29880727.421057962 29695150.0019789 29321427.243461955
          28743342.387717426 27944678.676955596 26870603.695138983 25466285.026230086 23639005.20508436 21296046.766557235
          18208078.920648094 14145770.877356317 8981643.279671637 2588216.7705837926 -6550213.483392305 -19949352.31574173
          -230298970.04259452 -156742423.79894862 -107262492.84907603 -73333634.33818991 -46430305.4115034 -25725378.682696942
          -10391726.765450971 883555.1428654679 9413371.844883328 15753169.214680463 20458393.126334727 23888425.542121086
          26402648.424314506 28190926.25538439 29443123.517800152 30265176.507037684 30763021.518572886 30987527.415765844
          30989563.06197665 30783263.794401243 30382764.95023556 29771317.080017 28932170.734282937 27808922.64437904
          26345169.541650973 24444331.59092819 22009828.95704012 18808236.32438215 14606128.377349649 9256177.061912265
          2611054.32403965 -6818892.192281921 -20523314.84306616 -235805062.35852423 -160920113.86078876 -110161972.399625
          -75143709.6638418 -47478397.34224808 -26237203.709284004 -10491297.039389748 1092382.3349028875 9846894.081062075
          16347443.930851325 21169237.61603416 24680835.24814956 27250796.938736502 29074618.30329791 30347794.957336724
          31179197.070139434 31677694.810992565 31895632.445990458 31885354.241227478 31661451.742156558 31238516.49423062
          30599373.01264168 29726845.812581737 28563291.514637306 27051066.739394914 25090445.073163923 22581700.10225366
          19288374.032504626 14974009.069757324 9474299.32571533 2624938.9120822293 -7037545.631021881 -20976627.763476893
          -239868193.92083603 -164050441.9052292 -112338559.20445155 -76485690.51964733 -48244980.551960796 -26603506.689891826
          -10548346.3219403 1267193.5741704225 10189806.020716952 16809993.2018478 21718257.301711485 25289995.94290981
          27900606.74804459 29749861.19845587 31037530.775483705 31874694.909371007 32372433.030360684 32584206.754238248
          32563477.696789186 32325187.10279244 31884276.217026953 31223252.346172366 30324622.79690835 29129841.0312067
          27580360.51103921 25574040.448253904 23008740.05469877 19646044.94674352 15247540.740757868 9634908.394251632
          2629828.8647346348 -7205034.818105519 -21307019.62458122 -242484090.19209316 -166129287.3074206 -113789319.13946523
          -77358055.89605165 -48729367.78500443 -26824100.79878326 -10563100.929847794 1407443.9532757457 10441345.982061101
          17139911.832699846 22104448.18138357 25714841.20350553 28350977.07445901 30215541.276137523 31511219.29043459
          32350572.10006703 32846160.687751636 33052204.29191485 33022922.150983103 32773498.10480345 32319115.993222963
          31642075.124155954 30724674.805516716 29507803.03446733 27932347.808169797 25894490.31879911 23290411.75853023
          19880814.20058852 15426399.718199374 9737841.415286005 2625812.395771646 -7321076.570054259 -21514214.711902257
          -243681902.4455394 -167177042.3359236 -114528259.167271 -77770161.19986057 -48937356.69397137 -26902109.957471997
          -10536685.298230989 1513486.0571259214 10602972.881972976 17339473.00374111 22330684.24986127 25958678.632301588
          28605528.16303018 30475495.892557994 31772844.87139597 32610903.850124512 33103001.579324033 33303761.96445248
          33267808.910967775 33010463.6904496 32547047.5744776 31859758.928988677 30930796.119919714 29700812.372933142
          28110460.913691416 26054967.970231213 23429559.770589218 19995101.61264447 15512458.794276068 9784265.9599332
          2613157.754065073 -7386605.365805298 -21600762.942154907 -243510448.67104623 -167228521.74551588 -114579353.75145648
          -77737761.16777973 -48878560.47339732 -26842606.064768787 -10470752.338353604 1586200.463448781 10677452.098238917
          17412819.879450873 22402121.12051873 26027389.298299316 28670657.88964946 30536475.36105061 31829390.178984232
          32662809.0147721 33150138.53973598 33346066.11115034 33305279.086289596 33043134.438264877 32574989.140187286
          31883044.027825158 30949499.93694683 29715094.459247157 28120565.186420985 26060882.871898107 23431018.269108325
          19993006.600106154 15508883.086946132 9776132.38061763 2592239.132110024 -7403272.100430006 -21570876.75885579
          -242046763.10427237 -166339255.4224443 -113980895.7614984 -77285794.81047669 -48568063.25842118 -26653450.331763472
          -10367705.256935133 1627235.2582462658 10669434.505963152 17366790.108552646 22327199.688351855 25930558.249212418
          28556760.79498594 30409420.43152103 31692150.264666293 32517783.364937164 32999152.80284909 33190687.055524696
          33146814.6000866 32882831.961311795 32414035.663977284 31722726.63852114 30791205.815381445 29560596.20424594
          27972020.814802375 25920856.074921377 23302478.4124736 19881039.956083793 15420692.834376713 9716513.933445
          2563580.139381297 -7373758.485477063 -21431151.87879276 -239377489.1061113 -164571835.72433168 -112776060.3717365
          -76442329.90825398 -48022811.19381237 -26343451.98807963 -10230200.050723726 1638503.3403943845 10584216.907413756
          17209142.937686186 22115483.718563452 25679035.983345043 28275596.465330426 30106702.75703409 31373892.450970553
          32188816.72811907 32663126.769458942 32850691.160502408 32805378.48676167 32542334.988548037 32076706.906172786
          31390986.372680362 30467665.521115202 29248533.523790713 27675379.55302031 25644603.472860605 23052605.147368208
          19666534.232169002 15253540.382888881 9608866.22432311 2527754.381266949 -7301098.298132193 -21188994.965726912
          -235592069.69948706 -161990927.98297116 -111009457.14379638 -75236347.83846271 -47260290.72347015 -25921692.801133074
          -10060961.073765885 1622001.4372262876 10427291.710438326 16947913.86303248 21776872.012171 25284049.560402617
          27839329.910276048 29641118.345386405 30887820.14932879 31689341.001634132 32155586.581833366 32339586.612201743
          32294370.815014508 32034851.841598038 31575942.343278706 30900410.033159666 29991022.624344066 28790495.245611057
          27241543.02573979 25242162.139231976 22690348.76058934 19357062.485489774 15013262.909611186 9456756.145017192
          2485348.3037714083 -7188429.869095508 -20852047.628552902
        </DataArray>
        <DataArray type="Float64" Name="s_xy" format="ascii" RangeMin="-20558763.61272309" RangeMax="131795348.92707658">
          0.006082668849548637 0.005271849663543653 0.0041547382794818385 0.0029794042500235897 0.001993917127829298 0.00118867756182955
          0.0005540862009549316 0.00006363432750818768 -0.00030918677620793634 -0.0005882630787405006 -0.0007974805486365649 -0.0009515708867236817
          -0.001065265793829403 -0.0011462518968185214 -0.001202215822555829 -0.0012378669803935463 -0.0012579147796838931 -0.001263395771547224
          -0.0012553465071038932 -0.001234505953658841 -0.0012016130785170087 -0.0011554759553013595 -0.0010949026576348585 -0.0010186079410501316
          -0.0009253065610798051 -0.0008145360721382254 -0.0006858340286397394 -0.0005427933076298007 -0.0003890067861538631 -0.00023696489482177418
          -0.00009915806424338157 -0.0000031191662500736833 0.000023618927326761146 10314672.42122883 7575261.050918091 5236293.69736604
          3357737.295886776 1999558.781794398 1019011.347631282 273348.18593980296 -281738.84986035747 -690557.9063495175
          -986346.6195001908 -1202342.6252848906 -1355397.8687925704 -1462364.2951121822 -1533154.140005265 -1577679.6392333582
          -1601202.9699508338 -1608986.309312063 -1603642.3988192147 -1587783.979974456 -1562196.715328848 -1527666.2674334522
          -1483409.454207844 -1428643.0935715989 -1360980.844029438 -1278036.3640860822 -1174403.506795542 -1044676.1252118282
          -881687.3078456442 -678270.143207694 -410466.4348258303 -54317.98622790465 377169.8306873694 870991.6440212782
          21041104.64567872 15452925.112412399 10681619.26360389 6849514.838734812 4078939.5772867734 2078701.4382067071
          557608.3804415421 -574724.6621281536 -1408682.755621812 -2012068.0122169347 -2452682.544091022 -2764902.96792414
          -2983105.900396355 -3127511.5076317997 -3218339.955754607 -3266325.6642030664 -3282203.052415468 -3271301.9035496973
          -3238952.000763639 -3186756.0326613593 -3116316.6878469256 -3026036.337676388 -2914317.3535057995 -2776291.79003451
          -2607091.7019618684 -2395688.9830142134 -2131055.526917884 -1798571.4089171896 -1383616.7042564387 -837318.6132631069
          -110804.33626466773 769396.2109155434 1776753.1124541906 32047678.730136666 23536329.854835525 16269160.210604975
          10432487.016129645 6212627.4900941495 3166067.418928246 849292.5890616844 -875362.3744792797 -2145562.84666839
          -3064578.135122964 -3735677.5474603157 -4211220.063199615 -4543564.661860031 -4763508.651793 -4901849.341349964
          -4974936.310617964 -4999119.139684039 -4982515.614245655 -4933243.5200002715 -4853743.909846975 -4746457.836684848
          -4608951.954433876 -4438792.917014049 -4228566.363359509 -3970857.9324043957 -3648870.73003081 -3245807.8621208523
          -2739401.7405655873 -2107384.77725608 -1275318.8754787543 -168765.9385200346 1171866.3538219256 2706170.3217489733
          43218600.34903074 31740434.06565273 21940132.98421646 14068959.278225817 8378175.121184704 4269669.688760674
          1145332.1566212762 -1180489.1373380744 -2893445.855221966 -4132804.0877780453 -5037829.925753961 -5679133.219855805
          -6127323.820789671 -6423934.114496359 -6610496.486916677 -6709059.523024401 -6741671.807793307 -6719280.7592485165
          -6652833.795415155 -6545622.851742918 -6400939.863681504 -6215503.288981843 -5986031.585394876 -5702525.953618286
          -5354987.594349761 -4920764.68746586 -4377205.412843148 -3694280.3259383882 -2841959.982208341 -1719859.252985417
          -227593.00960202533 1580346.0847141386 3649465.3667353797 54429294.16986977 39973747.61978608 27631296.309232336
          17718378.59216729 10551432.822549725 5377201.149785846 1442425.7232818534 -1486702.2533667136 -3643991.5765643185
          -5204833.2807269115 -6344618.400270443 -7152272.636266485 -7716721.689786612 -8090271.244811346 -8325226.985321215
          -8449356.791531377 -8490428.543656984 -8462229.36648388 -8378546.384797908 -8243525.446024162 -8061312.397587738
          -7827774.481209365 -7538778.93860977 -7181733.330788701 -6744045.218745905 -6197187.010865403 -5512631.1155312145
          -4652558.5969701335 -3579150.5194089543 -2165982.34215696 -286629.5245234355 1990280.1396037347 4596118.856336663
          65519365.78663754 48118474.290270105 33261225.18461291 21328531.73663107 12701307.21328968 6472816.05243401
          1736322.6919093258 -1789620.6491072152 -4386461.751438456 -6265327.90443954 -7637346.397465618 -8609561.711345287
          -9289018.326907147 -9738679.31015563 -10021507.727095172 -10170929.216045292 -10220369.415325508 -10186424.602468818
          -10085691.055008223 -9923159.344621519 -9703820.042986501 -9422698.334508996 -9074819.403594831 -8645025.077983966
          -8118157.185416363 -7459875.583536527 -6635840.129988966 -5600526.209317706 -4308409.206066772 -2607305.3403064082
          -345030.83210685756 2395803.4818603373 5532586.764923629 76313233.20129058 56045663.83878213 38740784.55439589
          24842261.470701147 14793760.710267166 7539168.228411331 2022369.980451004 -2084448.4114550422 -5109101.325148036
          -7297497.826966792 -8895546.983250128 -10027928.120946761 -10819320.567005416 -11343060.121939229 -11672482.586261336
          -11846520.243600717 -11904105.377586348 -11864568.388969826 -11747239.678502748 -11557931.980415566 -11302458.028938726
          -10975023.44163265 -10569833.836057771 -10069233.834743563 -9455568.060219519 -8688839.06653528 -7729049.407740499
          -6523174.599333876 -5018190.156814112 -3036841.0633190554 -401872.30198655993 2790495.7201598417 6444042.596096616
          86628375.21385677 63621269.76510656 43977316.64208492 28200151.63277051 16793410.525141995 8558225.968259756
          2295730.6111841635 -2366200.0876978743 -5799690.669999449 -8283889.351221768 -10097944.346866041 -11383387.69617738
          -12281751.438400889 -12876284.0610792 -13250234.051754933 -13447796.110779367 -13513164.938503774 -13468283.79613086
          -13335095.944863338 -13120199.81725114 -12830193.845844198 -12458500.430467034 -11998541.970944159 -11430276.639667246
          -10733662.609027967 -9863296.04000602 -8773773.093581097 -7404902.0474766875 -5696491.179416264 -3447326.185335738
          -456192.7611710126 3167682.7220639093 7315073.893355026 96279307.46438573 70709069.37669134 48876659.40848279
          31341821.463081393 18664299.443808477 9511664.824726265 2551489.079896974 -2629809.288295479 -6445811.7774671735
          -9206765.426212644 -11222917.273126423 -12651566.894576136 -13650013.866929399 -14310781.06976533 -14726391.382663032
          -14945963.06661824 -15018614.382626684 -14968733.20575714 -14820707.411078382 -14581870.536991343 -14259556.12189696
          -13846453.780622838 -13335253.127996588 -12703679.55390712 -11929458.448243368 -10962127.705877563 -9751225.221681934
          -8229853.546390443 -6331115.230737031 -3831379.463231084 -507015.43238198257 3520582.003231281 8130017.985029717
          105085602.14002085 77176553.59071684 53347217.795693934 34208536.261212826 20371450.493534192 10381659.89946192
          2784863.8857998885 -2870347.739897075 -7035385.170074149 -10048872.536141137 -12249433.969507849 -13808756.628446164
          -14898527.67122796 -15619732.686224487 -16073357.261806984 -16313012.31571795 -16392308.76569988 -16337865.151125524
          -16176300.011367643 -15915617.655129299 -15563822.391113553 -15112935.18158157 -14554976.988794519 -13865635.830483368
          -13020599.724379096 -11964790.992398512 -10643131.956458423 -8982606.317180421 -6910197.7751860805 -4181820.8763802536
          -553390.1666677956 3842595.978689171 8873639.184428524 112872717.92256162 82895536.4606017 57300385.053572915
          36743477.558552 21881027.832615696 11150967.835164241 2991229.5255978415 -3083047.9550559125 -7556725.465769432
          -10793520.064713035 -13157148.810057046 -14832021.323975021 -16002547.228640528 -16777195.406548912 -17264434.740195513
          -17521848.85543126 -17607021.37810706 -17548543.350429688 -17375005.814605888 -17095006.219382476 -16717142.01350627
          -16232842.891838724 -15633538.549241304 -14893115.422477052 -13985459.948309015 -12851413.049798708 -11431815.650007632
          -9648240.752319146 -7422261.360116591 -4491704.653831752 -594397.8138964094 4127342.3110285695 9531198.87228232
          119484560.28223522 87751379.65717956 60656919.03365399 38895831.8727204 23162771.63544071 11804167.676965578
          3166449.352445655 -3263646.3090003435 -7999382.278253709 -11425781.380692458 -13927866.44169461 -15700849.404613316
          -16939942.212801725 -17759967.623856343 -18275748.39537367 -18548241.278824955 -18638403.025681447 -18576499.480240535
          -18392796.486799594 -18096395.11426168 -17696396.431529842 -17183728.10332395 -16549317.794363886 -15765522.264740206
          -14804698.274543473 -13604221.334660513 -12101466.955978144 -10213414.056188248 -7857041.552982701 -4754819.103859928
          -629216.3663183477 4369113.194428811 10089516.113168322 124780053.60862681 91640474.98679806 63345202.01500319
          40619674.83300372 24189333.580561165 12327322.225207841 3306784.7344760685 -3408289.4093998536 -8353910.7241856335
          -11932166.045851316 -14545142.210366955 -16396702.852491247 -17690711.60698288 -18547080.11610366 -19085720.022115383
          -19370289.647887517 -19464447.31628952 -19399800.238035794 -19207955.623840723 -18898417.897229213 -18480691.481726162
          -17945301.960888773 -17282774.918274246 -16464241.980013361 -15460834.772236904 -14207153.32117178 -12637797.653044883
          -10666067.234527307 -8205261.5322901355 -4965550.203956145 -657102.9071481039 4562750.010001875 10536678.199361682
          128648906.11916383 94481822.39339924 65309243.83702676 41879103.13428477 24939332.969411604 12709535.488920571
          3409312.839324971 -3513964.704917766 -8612926.869350215 -12302127.34357622 -14996119.817199633 -16905088.79367852
          -18239218.776470963 -19122139.313423634 -19677479.952383216 -19970872.76647084 -20067949.82880763 -20001298.343568552
          -19803505.514928553 -19484370.454639815 -19053692.27445451 -18501702.800083403 -17818633.85723723 -16974721.997253187
          -15940203.771468474 -14647651.455316572 -13029637.324230963 -10996772.662225898 -8459668.753315615 -5119508.956309162
          -677476.6300155907 4704219.790794074 10863371.871348806 131003405.06196485 96211004.22363237 66504516.694061704
          42645563.62766726 25395766.178863414 12942142.11400774 3471709.1994578177 -3578276.3763619275 -8770558.42502708
          -12527277.690345136 -15270574.916123597 -17214481.348137084 -18573028.23216022 -19472107.75198816 -20037612.09141605
          -20336374.5047601 -20435228.24633651 -20367356.922886536 -20165944.141151447 -19840968.353687506 -19402408.013051003
          -18840316.17035803 -18144745.876724698 -17285388.960563503 -16231937.250286957 -14915728.976586157 -13268102.370152224
          -11198032.745882718 -8614495.418675208 -5213204.882604664 -689875.6317460603 4790315.202389615 11062190.48829137
          131795348.92707658 96792620.51457608 66906550.854746774 42903365.266305454 25549289.067968845 13020380.15710093
          3492696.4310657047 -3599907.829540595 -8823578.344121728 -12603007.788415313 -15362888.838158956 -17318546.60421357
          -18685306.19744006 -19589820.84706282 -20158743.78230623 -20459312.278937317 -20558763.61272309 -20490481.992471144
          -20287851.626989078 -19960911.290733185 -19519699.758159745 -18954209.948931415 -18254434.782710847 -17389882.86847031
          -16330062.815182082 -15005897.778318813 -13348310.913353166 -11265727.271310383 -8666571.903215718 -5244719.831570597
          -694046.0788764477 4819273.691936451 11129063.817937814 131003405.0619631 96211004.22363107 66504516.69406076
          42645563.627666555 25395766.178862944 12942142.114007447 3471709.199457633 -3578276.3763620215 -8770558.425027035
          -12527277.690345004 -15270574.916123522 -17214481.34813707 -18573028.23216011 -19472107.75198784 -20037612.091415446
          -20336374.50475933 -20435228.246335875 -20367356.922886115 -20165944.141151063 -19840968.35368712 -19402408.013050664
          -18840316.17035779 -18144745.876724593 -17285388.960563503 -16231937.25028694 -14915728.976586105 -13268102.370152185
          -11198032.745882701 -8614495.418675182 -5213204.882604601 -689875.6317459249 4790315.202389632 11062190.488290858
          128648906.11916178 94481822.39339781 65309243.83702567 41879103.13428389 24939332.969410967 12709535.48892013
          3409312.8393246443 -3513964.704917988 -8612926.869350262 -12302127.343576139 -14996119.817199577 -16905088.793678492
          -18239218.776470777 -19122139.313423194 -19677479.9523825 -19970872.76647 -20067949.82880699 -20001298.343568154
          -19803505.514928192 -19484370.454639427 -19053692.274454173 -18501702.800083168 -17818633.857237138 -16974721.997253187
          -15940203.771468401 -14647651.455316413 -13029637.324230852 -10996772.662225878 -8459668.753315644 -5119508.95630916
          -677476.630015429 4704219.7907941695 10863371.871348258 124780053.60862671 91640474.98679817 63345202.01500319
          40619674.83300353 24189333.580560863 12327322.225207496 3306784.734475683 -3408289.4094002503 -8353910.724185983
          -11932166.04585158 -14545142.21036711 -16396702.852491267 -17690711.606982738 -18547080.116103455 -19085720.02211534
          -19370289.64788769 -19464447.316289812 -19399800.238036115 -19207955.623841006 -18898417.897229437 -18480691.481726345
          -17945301.960888926 -17282774.918274365 -16464241.980013404 -15460834.772236759 -14207153.321171504 -12637797.653044702
          -10666067.234527325 -8205261.532290341 -4965550.2039563805 -657102.9071480734 4562750.010002133 10536678.199361797
          119484560.28223698 87751379.65718107 60656919.03365504 38895831.87272094 23162771.635440856 11804167.676965423
          3166449.352445287 -3263646.3090008656 -7999382.27825435 -11425781.380693112 -13927866.441695103 -15700849.404613601
          -16939942.212801877 -17759967.623856593 -18275748.395374402 -18548241.278826162 -18638403.025682732 -18576499.480241682
          -18392796.486800585 -18096395.11426251 -17696396.431530528 -17183728.1033245 -16549317.794364274 -15765522.26474042
          -14804698.274543498 -13604221.334660428 -12101466.955978118 -10213414.056188382 -7857041.552983031 -4754819.103860297
          -629216.36631841 4369113.19442916 10089516.113168942 112872717.92256306 82895536.46060285 57300385.05357382
          36743477.55855265 21881027.832616013 11150967.83516422 2991229.525597548 -3083047.9550564266 -7556725.4657701375
          -10793520.064713871 -13157148.810057918 -14832021.323975854 -16002547.228641264 -16777195.406549647 -17264434.740196493
          -17521848.855432544 -17607021.378108546 -17548543.350431178 -17375005.81460712 -17095006.219383392 -16717142.01350699
          -16232842.891839344 -15633538.549241869 -14893115.42247761 -13985459.948309615 -12851413.049799306 -11431815.650008122
          -9648240.752319504 -7422261.360116891 -4491704.653831964 -594397.8138963998 4127342.3110287753 9531198.87228253
          105085602.14002128 77176553.59071729 53347217.79569448 34208536.26121338 20371450.49353454 10381659.899461977
          2784863.885799676 -2870347.739897515 -7035385.1700747525 -10048872.53614191 -12249433.96950887 -13808756.628447374
          -14898527.671229156 -15619732.686225573 -16073357.26180797 -16313012.315718966 -16392308.765701182 -16337865.15112703
          -16176300.011368921 -15915617.655130222 -15563822.391114293 -15112935.18158226 -14554976.98879525 -13865635.83048423
          -13020599.724380167 -11964790.992399689 -10643131.956459422 -8982606.317181116 -6910197.775186525 -4181820.8763805074
          -553390.1666679255 3842595.9786889683 8873639.18442792 96279307.46438645 70709069.37669238 48876659.40848378
          31341821.463082127 18664299.44380891 9511664.824726377 2551489.079896793 -2629809.2882958762 -6445811.777467658
          -9206765.42621322 -11222917.27312724 -12651566.894577198 -13650013.86693059 -14310781.069766551 -14726391.382664215
          -14945963.066619426 -15018614.38262803 -14968733.205758639 -14820707.411079865 -14581870.53699272 -14259556.121898193
          -13846453.78062394 -13335253.127997587 -12703679.553908102 -11929458.448244441 -10962127.705878738 -9751225.221683132
          -8229853.546391584 -6331115.230738063 -3831379.4632319873 -507015.4323827717 3520582.0032304586 8130017.985028572
          86628375.21385841 63621269.7651084 43977316.64208639 28200151.632771406 16793410.525142424 8558225.968259808
          2295730.6111839004 -2366200.08769835 -5799690.669999994 -8283889.351222346 -10097944.346866723 -11383387.696178233
          -12281751.43840198 -12876284.061080545 -13250234.051756503 -13447796.110781075 -13513164.93850548 -13468283.796132572
          -13335095.9448652 -13120199.817253117 -12830193.84584608 -12458500.430468718 -11998541.970945649 -11430276.639668602
          -10733662.609029295 -9863296.040007403 -8773773.0935826 -7404902.047478305 -5696491.179417944 -3447326.1853374
          -456192.76117256435 3167682.7220624755 7315073.893353623 76313233.20129289 56045663.838783845 38740784.554397084
          24842261.470701844 14793760.710267399 7539168.2284111595 2022369.9804505238 -2084448.4114557581 -5109101.32514893
          -7297497.826967789 -8895546.983251126 -10027928.120947815 -10819320.567006713 -11343060.121940875 -11672482.586263362
          -11846520.243603006 -11904105.377588639 -11864568.38897206 -11747239.67850506 -11557931.980417943 -11302458.028941013
          -10975023.441634838 -10569833.836059969 -10069233.834745849 -9455568.060221925 -8688839.066537723 -7729049.407742765
          -6523174.599335935 -5018190.156816117 -3036841.063321066 -401872.3019885405 2790495.720157995 6444042.596095073
          65519365.78664006 48118474.290271334 33261225.184613567 21328531.736631453 12701307.213289676 6472816.052433607
          1736322.6919086191 -1789620.6491081836 -4386461.751439693 -6265327.904440973 -7637346.397467086 -8609561.711346801
          -9289018.32690889 -9738679.310157701 -10021507.72709759 -10170929.216047969 -10220369.415328259 -10186424.602471538
          -10085691.055010887 -9923159.344624108 -9703820.042989006 -9422698.334511524 -9074819.403597599 -8645025.077987054
          -8118157.185419709 -7459875.583539888 -6635840.129991908 -5600526.209320153 -4308409.206069007 -2607305.340308602
          -345030.8321090679 2395803.4818582 5532586.764921806 54429294.16987222 39973747.61978722 27631296.309232887
          17718378.59216757 10551432.82254964 5377201.149785371 1442425.7232810569 -1486702.2533677805 -3643991.576565607
          -5204833.280728401 -6344618.400272146 -7152272.636268428 -7716721.689788829 -8090271.2448138045 -8325226.9853238175
          -8449356.791534066 -8490428.54365976 -8462229.366486695 -8378546.384800673 -8243525.446026847 -8061312.397590367
          -7827774.481212034 -7538778.938612647 -7181733.330791809 -6744045.218749114 -6197187.01086857 -5512631.115534184
          -4652558.596972865 -3579150.5194115276 -2165982.342159431 -286629.52452584176 1990280.1396013675 4596118.856334324
          43218600.34903306 31740434.06565402 21940132.98421717 14068959.278226178 8378175.121184713 4269669.688760337
          1145332.1566206096 -1180489.1373390171 -2893445.8552230857 -4132804.0877793627 -5037829.925755615 -5679133.219857831
          -6127323.820791998 -6423934.114498854 -6610496.486919138 -6709059.523026796 -6741671.807795783 -6719280.7592510935
          -6652833.795417724 -6545622.85174544 -6400939.863683997 -6215503.288984343 -5986031.58539743 -5702525.953620863
          -5354987.594352253 -4920764.687468293 -4377205.412845671 -3694280.3259410057 -2841959.9822109174 -1719859.2529878747
          -227593.00960434688 1580346.084711843 3649465.366732873 32047678.730139006 23536329.854836937 16269160.21060585
          10432487.016130202 6212627.490094426 3166067.4189282507 849292.5890614076 -875362.3744798361 -2145562.8466692106
          -3064578.1351240315 -3735677.547461614 -4211220.063201144 -4543564.661861806 -4763508.651794938 -4901849.3413518835
          -4974936.310619852 -4999119.139686051 -4982515.614247782 -4933243.520002347 -4853743.9098489545 -4746457.836686806
          -4608951.954435833 -4438792.917015967 -4228566.363361377 -3970857.9324062355 -3648870.7300326508 -3245807.862122729
          -2739401.740567492 -2107384.7772579584 -1275318.8754805736 -168765.9385217812 1171866.3538201877 2706170.3217471032
          21041104.64568102 15452925.112413922 10681619.263605058 6849514.838735799 4078939.5772875166 2078701.438207202
          557608.3804418509 -574724.6621280417 -1408682.7556219802 -2012068.0122173312 -2452682.5440914636 -2764902.96792462
          -2983105.900397044 -3127511.507632722 -3218339.95575564 -3266325.6642041956 -3282203.0524167866 -3271301.9035511483
          -3238952.0007650126 -3186756.032662584 -3116316.687848065 -3026036.3376774834 -2914317.3535068696 -2776291.790035579
          -2607091.7019629665 -2395688.9830153137 -2131055.5269189016 -1798571.4089181232 -1383616.7042573716 -837318.6132640673
          -110804.33626563127 769396.2109145692 1776753.1124531669 10314672.42122994 7575261.050919211 5236293.697367149
          3357737.295887821 1999558.7817952882 1019011.3476320164 273348.1859404734 -281738.84985971416 -690557.9063489191
          -986346.6194996279 -1202342.6252843267 -1355397.8687920312 -1462364.2951117575 -1533154.1400050235 -1577679.6392333463
          -1601202.9699510287 -1608986.3093123708 -1603642.3988195881 -1587783.9799748934 -1562196.7153292908 -1527666.267433783
          -1483409.4542080772 -1428643.0935718787 -1360980.8440297616 -1278036.3640862987 -1174403.50679563 -1044676.1252118935
          -881687.3078457583 -678270.1432078927 -410466.43482610816 -54317.98622821636 377169.8306870103 870991.6440207997
          0.006077469992067937 0.005269214218262842 0.004152339403680419 0.0029766603845255302 0.0019919919970030416 0.0011877101198910244
          0.0005531906319675514 0.00006258348540254786 -0.0003099613676340602 -0.0005888218598601661 -0.0007983759239936629 -0.0009525466686789185
          -0.001065257202560301 -0.0011453344949802645 -0.0012016055152812635 -0.0012376084398754922 -0.0012568814451751438 -0.001261636028021113
          -0.001254083685254295 -0.0012341806930070954 -0.0012018833274119204 -0.001156009716370891 -0.0010953779877861266 -0.0010189165216684547
          -0.0009255536980287023 -0.0008146945324557425 -0.0006857440405384477 -0.0005424263468944981 -0.00038846557614157336 -0.00023648117385251144
          -0.00009909258560014992 -0.0000032526065174565133 0.000024085968262601056
        </DataArray>
        <DataArray type="Float64" Name="s_yy" format="ascii" RangeMin="-243681902.44553104" RangeMax="33346066.111150227">
          -235592069.699468 -161990927.9829561 -111009457.14378494 -75236347.83845356 -47260290.72346105 -25921692.801123597
          -10060961.073757427 1622001.4372333444 10427291.710444594 16947913.86303803 21776872.01217535 25284049.560405795
          27839329.91027859 29641118.345388588 30887820.149330642 31689341.00163564 32155586.581834484 32339586.612202115
          32294370.81501349 32034851.841595616 31575942.343275517 30900410.033156272 29991022.62434095 28790495.24560798
          27241543.025735788 25242162.139226656 22690348.760582883 19357062.485482186 15013262.909602279 9456756.145007297
          2485348.3037613765 -7188429.86910514 -20852047.628561907 -239377489.10609806 -164571835.72431952 -112776060.3717245
          -76442329.90824214 -48022811.193801634 -26343451.988070276 -10230200.050715374 1638503.3404019997 10584216.90742075
          17209142.937692456 22115483.7185687 25679035.98334913 28275596.46533339 30106702.757036 31373892.450971458
          32188816.728119146 32663126.769458458 32850691.160501532 32805378.48676052 32542334.98854649 32076706.90617052
          31390986.372676983 30467665.521110244 29248533.523784325 27675379.553013258 25644603.472853094 23052605.147359893
          19666534.232159894 15253540.382879362 9608866.22431317 2527754.381256209 -7301098.298144034 -21188994.965740073
          -242046763.10425368 -166339255.42242977 -113980895.76148607 -77285794.81046544 -48568063.25841078 -26653450.331753917
          -10367705.256926732 1627235.2582533436 10669434.505968863 17366790.108557325 22327199.68835622 25930558.24921658
          28556760.794989426 30409420.43152348 31692150.26466744 32517783.364937212 32999152.802848697 33190687.055524036
          33146814.600085367 32882831.961309735 32414035.66397421 31722726.6385173 30791205.81537752 29560596.20424192
          27972020.81479755 25920856.074915472 23302478.412466753 19881039.956076015 15420692.834367912 9716513.933435254
          2563580.139370864 -7373758.485488256 -21431151.878805097 -243510448.67103115 -167228521.74550256 -114579353.75144489
          -77737761.16776948 -48878560.47338779 -26842606.064759873 -10470752.33834581 1586200.463455348 10677452.098244563
          17412819.879455786 22402121.120522987 26027389.298303053 28670657.889652904 30536475.361053698 31829390.178986613
          32662809.01477362 33150138.539736703 33346066.111150227 33305279.08628857 33043134.4382629 32574989.140184402
          31883044.027821615 30949499.936943095 29715094.45924324 28120565.18641645 26060882.871892635 23431018.26910169
          19993006.6000984 15508883.086937556 9776132.380608298 2592239.132099782 -7403272.100441128 -21570876.758867566
          -243681902.44553104 -167177042.33591303 -114528259.16726051 -77770161.19985114 -48937356.69396276 -26902109.957464106
          -10536685.298223995 1513486.057132197 10602972.881979095 17339473.0037469 22330684.249865808 25958678.63230486
          28605528.163033105 30475495.892560985 31772844.871398933 32610903.850127064 33103001.579325497 33303761.964452695
          33267808.910967123 33010463.69044827 32547047.574475635 31859758.928985972 30930796.11991603 29700812.372928612
          28110460.91368653 26054967.970225845 23429559.77058263 19995101.612636738 15512458.794268005 9784265.959924769
          2613157.7540553724 -7386605.365816183 -21600762.942165904 -242484090.19208542 -166129287.3074107 -113789319.1394555
          -77358055.89604309 -48729367.78499668 -26824100.798776094 -10563100.929841207 1407443.9532818429 10441345.982066909
          17139911.8327052 22104448.181387927 25714841.203508757 28350977.074461356 30215541.27613932 31511219.290436257
          32350572.10006852 32846160.687752463 33052204.291914925 33022922.150982734 32773498.104802713 32319115.993221674
          31642075.12415405 30724674.80551427 29507803.03446439 27932347.808166455 25894490.3187952 23290411.75852535
          19880814.200582705 15426399.718193095 9737841.415279143 2625812.395763488 -7321076.570063356 -21514214.711910874
          -239868193.92082766 -164050441.90522042 -112338559.20444344 -76485690.51964019 -48244980.55195409 -26603506.68988533
          -10548346.321934147 1267193.574176095 10189806.020722026 16809993.201852303 21718257.301715594 25289995.94291329
          27900606.74804679 29749861.198456842 31037530.775484227 31874694.90937138 32372433.03036077 32584206.754237995
          32563477.696788657 32325187.10279162 31884276.217025723 31223252.346170913 30324622.796907105 29129841.031205535
          27580360.51103743 25574040.448251266 23008740.054695502 19646044.946739707 15247540.740753442 9634908.394246489
          2629828.8647286245 -7205034.818111941 -21307019.62458699 -235805062.35852027 -160920113.86078423 -110161972.39962026
          -75143709.66383693 -47478397.342242815 -26237203.70927852 -10491297.03938458 1092382.3349075883 9846894.081066562
          16347443.930855697 21169237.616038356 24680835.24815329 27250796.938739263 29074618.303299755 30347794.957338274
          31179197.070140764 31677694.810993183 31895632.44599015 31885354.24122628 31661451.7421548 31238516.49422893
          30599373.012640268 29726845.812580418 28563291.514635734 27051066.7393926 25090445.07316081 22581700.102250148
          19288374.032500956 14974009.069753565 9474299.325711507 2624938.912078313 -7037545.631025845 -20976627.76348079
          -230298970.0425947 -156742423.79894736 -107262492.84907395 -73333634.3381872 -46430305.411499806 -25725378.682692792
          -10391726.765447125 883555.1428688713 9413371.844886865 15753169.214684248 20458393.126338407 23888425.542124487
          26402648.42431764 28190926.255387317 29443123.517802984 30265176.507040184 30763021.518574458 30987527.415766157
          30989563.061975673 30783263.794399515 30382764.950234223 29771317.080016147 28932170.734281667 27808922.64437696
          26345169.54164821 24444331.590924915 22009828.957036566 18808236.324378595 14606128.377346415 9256177.061909487
          2611054.3240372585 -6818892.192284271 -20523314.843069103 -223377774.00139278 -151538761.21887475 -103654987.13163836
          -71064655.70167358 -45105970.89097023 -25070560.320547767 -10250051.611425634 641879.0200625871 8891555.357583323
          15030303.798239706 19589450.73913487 22916906.135088734 25360579.94092121 27103379.371239655 28328211.640651405
          29137369.637471493 29633146.250014946 29864584.50297857 29880727.42105917 29695150.001979608 29321427.243462734
          28743342.387718234 27944678.676955808 26870603.695138454 25466285.026229184 23639005.205083255 21296046.76655592
          18208078.92064658 14145770.87735464 8981643.27966989 2588216.7705821195 -6550213.483394076 -19949352.3157441
          -215106412.01480395 -145357682.84237385 -99373095.06595926 -68358027.17625196 -43517857.66394373 -24278956.341497466
          -10067693.021376107 369505.2583912151 8286211.459775379 14185495.171110429 18570425.98073041 21775255.250583827
          24134234.34261917 25822051.668972507 27013395.641779877 27806240.144578256 28298559.060904592 28537236.111208063
          28569155.015937842 28407231.486263104 28064381.23335302 27525021.86530532 26773570.990217738 25757082.980958164
          24422612.210394464 22681983.654985514 20447022.291190166 17493513.90707662 13597244.29071305 8653275.746823706
          2556670.5801328216 -6233995.92744306 -19260148.493987393 -205574785.6048211 -138265999.0417986 -94463067.04720739
          -65243118.06099313 -41683280.52310137 -23359259.917467106 -9846761.728025354 69232.06177677998 7603739.468492176
          13227737.462855592 17412203.01560178 20475690.25941342 22736753.32697319 24360688.679987554 25512792.780162983
          26286091.50528322 26773610.733132053 27019764.65979902 27068967.481373694 26933383.73897915 26625177.973738443
          26129496.96103211 25431487.47624068 24480386.01620382 23225429.077761192 21583615.502551064 19471944.132211678
          16672281.570686087 12966494.421917336 8274646.240898001 2516800.582620647 -5873628.420983445 -18463226.637982994
          -194908387.2839926 -130356564.79438095 -88989148.22314462 -61760871.19172692 -39626467.32157116 -22323702.8921713
          -9590344.183021361 -255211.2270957216 6852875.942631225 12169380.664903631 16129766.278465638 19035057.019349076
          21186277.123585764 22738280.30500258 23845920.277426388 24596710.578179568 25078164.744584512 25331949.432420027
          25399731.297464903 25292841.576000657 25022611.504308794 24575002.256830674 23935975.008007694 23057214.854693513
          21890406.8937418 20358288.136490703 18383595.594278384 15755157.823756857 12261803.381578133 7850743.55669897
          2469189.6380761177 -5473789.1407953445 -17569123.546420343 -183255164.15299317 -121738619.44349194 -83026899.88237141
          -57959524.97552783 -37376014.22885751 -21186761.040733963 -9302158.809530687 -599528.4604927716 6043809.081134714
          11024868.052749922 14740662.691751005 17473097.179856814 19504075.698786214 20977102.075417243 22035680.136627935
          22761322.7669405 23235542.85087717 23497019.31568639 23584431.088616602 23508205.396048833 23278769.46436409
          22882972.830614507 22307665.031852238 21507212.16013042 20435980.3075022 19022930.279128812 17197022.880171485
          14754830.422110584 11492925.216426454 7387450.8443167675 2414550.886979187 -5039963.557564003 -16590281.391290521
          -170791549.22269213 -112542205.175476 -76666252.70118952 -53896575.313411735 -34966056.52572175 -19965752.563584287
          -8986719.652464055 -958696.753249585 5188577.173170594 9811307.358213264 13265699.03329521 15813235.05746188
          17715398.289758723 19103606.2653311 20109276.51932436 20807523.4162793 21273461.320736732 21542586.2156119
          21650394.083820038 21606351.003931355 21419923.054516084 21078908.674651206 20571106.3034137 19853754.722404018
          18884092.71322262 17597697.11754753 15930144.777056796 13686413.735702345 10671482.03743611 6891785.703595907
          2353760.755519541 -4578663.554000348 -15541557.97217112 -157710042.80976024 -102909037.58396654 -70005195.36028494
          -49634731.78004575 -32433862.48457919 -18679613.385179598 -8649010.393141313 -1327309.6215101588 4300232.816668026
          8547278.67357118 11727489.701377243 14080941.135389088 15847708.210909588 17146571.619802948 18096312.053933363
          18765346.014696084 19222090.00348635 19498710.809078816 19627375.220248114 19616545.786008965 19474685.0553761
          19190586.272288706 18753042.680685986 18122312.996069398 17258655.93394038 16104555.059135081 14602493.936489629
          12566386.58122555 9810147.008564383 6371406.059500911 2287794.5750299157 -4096972.15663168 -14439178.847266953
          -144219616.44712985 -92992795.6246223 -63149974.38754995 -45242048.22668693 -29819912.632807367 -17348938.660940107
          -8294497.366113998 -1699568.8661089758 3392866.7212950196 7252869.694696215 10150500.352692831 12303781.701857923
          13930736.74876454 15137160.133821948 16028846.497439409 16667321.937411152 17114112.55153139 17397962.742484786
          17547616.912956014 17570507.67477098 17474067.6397556 17248114.88025911 16882467.468630753 16340503.004346915
          15585599.086883964 14567326.761513295 13235257.073506286 11412626.274701787 8922670.616938649 5834626.284855475
          2217729.463090867 -3602557.441231015 -13300772.020986013 -130536005.69650234 -82951988.38940154 -56210163.0556694
          -40788762.255919054 -27166018.550763644 -15995024.76730918 -7928873.732661657 -2069551.5121438634 2480955.828921412
          5948745.385641723 8559914.253124619 10510141.164052997 11995104.851109745 13107472.189705078 13939910.05524921
          14546971.726784686 14983210.483354056 15273909.837983549 15444353.303699398 15500933.599041361 15450043.442549199
          15282539.373829655 14989277.932489488 14536804.658248333 13891665.090825832 13010585.306285676 11850291.380691558
          10243578.580252165 8023242.17117618 5290030.938814669 2144693.668518698 -3103317.0448949863 -12144548.606609633
          -116876495.64688766 -72946124.10532145 -49296013.13452655 -36345597.56081116 -24514312.210483443 -14639354.481540123
          -7557921.771977923 -2431352.8452720838 1579013.5351021488 4655648.636866488 6981023.727742643 8728536.123676095
          10071583.140612325 11089770.806730218 11862705.150208667 12437995.002541045 12863249.195220727 13160306.845264517
          13351007.069689227 13440709.269044457 13434772.843879806 13325089.945811152 13103552.726454385 12739873.434753915
          12203764.319654169 11459060.289630238 10469596.253157217 9077811.881780919 7126146.847047153 4746267.269058497
          2069839.2679175204 -2607187.3113767044 -10988862.623825109 -103454675.4447813 -63131859.164831154 -42515793.083424486
          -31982056.54929483 -21906228.911175642 -13303078.436136516 -7187373.391247021 -2779229.0830128575 701239.1820602723
          3393899.3660999746 5438619.431233854 6986926.81054893 8190348.937132223 9115702.640400488 9829804.749770476
          10373456.793034157 10787460.297983503 11090280.457469583 11300382.46434347 11422115.188548483 11459827.500027938
          11406428.101866193 11254825.69714761 10977848.546167444 10548324.909220947 9937040.784820972 9114782.171480369
          7933568.903988112 6245420.817133171 4211836.461078123 1994314.385985552 -2121951.662869221 -9851767.940210871
          -90470639.35166147 -53655805.73645843 -35970816.77159266 -27763231.03517541 -19380607.10531787 -12006046.071197065
          -6822649.021990024 -3107863.2329632207 -139135.97938313233 2182459.5685939095 3955850.240811573 5311431.5687629115
          6379599.083940986 7214843.489365887 7871655.488057709 8384268.211655647 8786914.791798893 9094807.44856054
          9323158.402013674 9475343.926411888 9554740.296008762 9555238.53210522 9470729.656002196 9277060.863111097
          8950079.348843336 8467260.247964595 7806078.695240561 6827929.400194541 5394207.072349843 3694703.6645174753
          1919211.129508454 -1654882.8201082682 -8750190.471763736 -78111241.49456494 -44654725.54130868 -29755578.00784975
          -23749886.04925753 -16973736.820601333 -10766829.198196452 -6468862.058358168 -3412355.218497824 -929828.4960267552
          1038961.0588414836 2554256.395893338 3726363.7696451554 4665589.43461328 5414739.418650028 6016619.749607716
          6499228.961473655 6890565.588235161 7202756.878023619 7447930.078970413 7628540.908775216 7747045.085137696
          7798267.554454019 7777033.263120354 7662067.918308025 7432097.227188361 7070926.481635545 6562360.973523769
          5776832.40141478 4584772.463870332 3202308.0814757245 1845566.1748162615 -1212752.9817928907 -7699949.114036562
          -66537476.11140158 -36246270.715787664 -23951351.078975484 -19994352.917808298 -14716911.949129306 -9601473.101434195
          -6130481.303218637 -3688562.6472044326 -1660343.226113384 -21496.741370713316 1252303.1055983568 2252578.1505923294
          3070850.229409709 3739035.375283916 4289049.62144837 4743072.291198807 5123282.707830964 5438931.576526261
          5699269.602466118 5905896.088076951 6060410.335785178 6158510.6346028 6195895.273541824 6153990.654195823
          6014223.178158373 5766286.072707081 5399872.565119553 4793998.131273857 3827678.247048065 2741060.7041050205
          1774293.294107574 -801373.5316496287 -6714689.321871935 -55890262.867281266 -28533243.66375762 -18629136.27688049
          -16542414.012398077 -12637550.176058551 -8524065.438299727 -5811480.469559417 -3932937.979140884 -2321580.6763473884
          -985788.0022197888 66060.60220105837 908236.7031543718 1615011.8668793691 2208340.4798861304 2710176.9286847366
          3137367.960543995 3506760.3227327126 3824971.8854196146 4098620.5187734277 4328523.794991093 4515499.286269554
          4656047.382981469 4746668.475499495 4771279.06598306 4713795.656591596 4569284.674867869 4332812.548354653
          3891423.3091587527 3132160.9893869795 2316574.456427554 1706212.5776686987 -425808.0114986695 -5806370.67568363
          -46277028.04697921 -21593754.722688273 -13842857.628654575 -13428936.192762002 -10756589.842894413 -7545407.526411413
          -5514978.190672607 -4142889.532101814 -2906729.247122861 -1844037.265608544 -992353.51743166 -292948.11479274626
          312908.83010766003 838239.6471774249 1296066.6663244136 1698444.7664051643 2057428.826276213 2377274.3273625644
          2662236.751089223 2912434.5912226047 3127986.3415291253 3306115.142416273 3444044.1342915376 3527944.2746533114
          3543986.520999984 3492040.990153885 3371977.798937342 3078235.0205956986 2505250.7283742963 1933130.1070546834
          1641978.3414184079 -89883.0806609452 -4984132.671309785 -37782022.32122343 -15488813.564465303 -9634611.559301998
          -10681231.381929776 -9090488.10854491 -6674030.333690828 -5243506.651910959 -4316493.608418116 -3410567.748425115
          -2588625.787755078 -1913564.4422311266 -1340350.4424690679 -823950.5190847092 -359166.04114740354 59201.6222734961
          438998.36411789356 788070.0773256926 1108601.1204437332 1402775.8520188536 1670102.5186451667 1910089.3669167834
          2120596.590343554 2299484.3824353297 2434922.8010161347 2515081.903909995 2544023.5132087963 2525809.4510044227
          2361573.6510310094 1952450.04702269 1594086.756415605 1582131.8966458957 203432.40820016633 -4255164.768434973
          -30453876.889749546 -10253204.872848243 -6028361.111661318 -8315007.64869593 -7648806.52645925 -5914961.606327683
          -4998676.7496776385 -4452828.001989113 -3830291.4087421023 -3215374.0818788023 -2692383.1333414107 -2228058.66691747
          -1789140.7863945216 -1377101.8305949408 -993414.138341102 -633833.9780577451 -294117.61816961074 26151.20047048733
          327388.73700973555 608585.2704782191 868731.0799060232 1106234.0778086665 1319502.176701667 1498437.694145359
          1632942.9477000765 1730635.804106173 1799134.1301040035 1745530.2352264388 1476916.4290063502 1301386.532621405
          1527034.3672492693 452480.54193950933 -3623654.334258306 -24318767.16786589 -5905170.957217302 -3036630.228500151
          -6338656.36254143 -6436760.740168132 -5271022.742884119 -4781521.752193255 -4551605.8987890715 -4164623.313365103
          -3722275.5483420836 -3326264.1561407507 -2953137.939907334 -2579445.702788065 -2212155.360302551 -1858234.8279703998
          -1516423.2721798685 -1185459.8593192163 -866387.367093382 -560248.5732073034 -268477.16255775135 7493.179958504073
          266526.82264729793 507488.1338144651 721738.5471074478 900639.4961736873 1054717.423020346 1194498.7696545874
          1232272.7365155763 1080328.5240424785 1056078.3217573862 1476934.3191823927 656431.0606467637 -3091896.9095202317
          -19370236.31790112 -2438952.917506891 -655349.2410519074 -4749941.414496926 -5453245.563802705 -4741819.85314504
          -4592222.446699722 -4613447.326719253 -4414488.47545614 -4110462.0529436585 -3816484.2192150843 -3516959.73686104
          -3196293.3684721496 -2865781.998687857 -2536722.51214761 -2210221.951915594 -1887387.3610559958 -1570413.739792981
          -1261496.0883507144 -962398.8232436694 -674886.3609863194 -399728.589971213 -137695.39859089884 103761.85682553459
          317191.8199489983 515387.4024127387 711141.515850003 821177.2296571946 762217.6132307176 857912.6905777373
          1431912.4857054187 815651.5436480965 -2659435.590559893 -15582630.933556648 165327.48068013816 1129313.154228239
          -3540374.8531419644 -4693437.481660095 -4325067.626929822 -4430458.184554817 -4639505.847569914 -4582107.309009947
          -4382911.80207919 -4166568.559981916 -3923428.8904694766 -3643844.101293223 -3342300.7251693932 -3033285.2948142285
          -2719671.7638365095 -2404334.0858450183 -2090319.7927129753 -1780676.416313599 -1477408.1117791152 -1182519.034241747
          -896502.0317264391 -619849.9522581353 -359093.1747241398 -120762.07801175762 109576.07959214444 346354.03980070003
          509977.3954682145 520851.73944899335 705876.4452151431 1391950.8862387703 931214.2423405126 -2324194.306658991
          -12902245.035805892 1948158.0632619509 2345434.993271685 -2692335.803669325 -4147075.885453716 -4015711.1360901557
          -4295167.439587313 -4631704.46420355 -4671581.878197238 -4545289.258023804 -4383316.180138675 -4180140.250629212
          -3930239.075582775 -3650203.777967713 -3356625.480752377 -3053572.4553666646 -2745112.9732404733 -2434861.640718114
          -2126433.0641438947 -1821984.5223351573 -1523673.2941092448 -1231799.7500622603 -946664.2607903092 -674130.2986091676
          -420061.3358346122 -168981.2568784405 94586.05384755012 294008.49184064433 352653.95259812655 597840.1107501057
          1356884.640926691 1005218.1367105218 -2081728.808315761 -11265643.554025965 2957166.482710259 3026029.1485981625
          -2185036.9858383015 -3802013.35007518 -3807733.0006975248 -4185028.994290384 -4592229.577076779 -4687662.995279728
          -4604186.512917674 -4474657.394009056 -4295964.351527953 -4064996.09844845 -3799426.88924731 -3516930.978401296
          -3222231.694271914 -2920052.3652206715 -2614305.909751253 -2308905.246367344 -2006079.280289983 -1708056.916740208
          -1415025.7334301928 -1127173.308072112 -849935.8633499272 -588749.6219475997 -327656.278497008 -50697.5276300305
          167774.52454350577 253407.77191377367 531287.0086256807 1326497.028824134 1040117.2687802699 -1926772.8352347761
          -10606215.520274743 3242295.9684753274 3205707.6341763986 -1996659.4836367741 -3645484.3454294326 -3694798.0322578982
          -4098631.6251784894 -4523346.972183486 -4635305.921265166 -4566490.82249245 -4448884.025934255 -4280180.381164714
          -4058074.7377579547 -3800369.63125114 -3524867.597181431 -3236442.696314518 -2939968.98941609 -2639406.4340162165
          -2338714.9876449658 -2040119.0395826213 -1745842.9791094672 -1456036.1570718326 -1170847.9243160472 -895511.757900415
          -635261.1348832401 -374179.8403558098 -96351.65940941134 125509.2191357594 218688.60645950644 503573.9508531811
          1300552.7006081347 1038479.6305777887 -1853790.4843844362
        </DataArray>
        <DataArray type="Float64" Name="s_zz" format="ascii" RangeMin="-367709259.92919177" RangeMax="7584326.31336723">
          -313859485.56591916 -228676888.78338465 -168796201.62161577 -126224834.05274302 -92970196.04889688 -67552669.70131022
          -48492637.10121588 -34303711.63334614 -23499506.682433322 -15381483.277491307 -9251102.447533993 -4678186.207696088
          -1232556.573112293 1318010.053664432 3205737.2700811257 4558753.256787678 5505186.194433982 6106432.7307367
          6423889.513412501 6473627.4405956045 6271717.41042023 5795263.950230861 5021371.587371983 3878489.0800307454
          2295065.186394301 142020.64207456924 -2709723.8173165284 -6537962.966757761 -11620491.581227895 -18242690.93821791
          -26689942.315218776 -38400283.288387805 -54811751.43388231 -319525883.8126347 -232805406.10176188 -171843637.00294808
          -128503688.80000871 -94648673.7767592 -68772261.10144877 -49368119.94232672 -34923028.55915154 -23923765.211681735
          -15659179.55288664 -9418121.235735556 -4762645.870675214 -1254809.0681523355 1341805.3186396407 3263613.436507281
          4641056.683741032 5604576.4586313395 6216677.859883234 6539865.986201744 6590501.878646515 6384946.5782771995
          5899891.259101821 5112027.095128407 3948511.0631926 2336500.140130041 144584.673110311 -2758644.990697011
          -6655998.91463928 -11830287.162063852 -18572043.265063073 -27171800.7557293 -39093559.4448498 -55801319.14321185
          -325015117.26675034 -236804841.79082993 -174795791.70660707 -130711293.20063663 -96274672.45947312 -69953720.93053184
          -50216230.06122805 -35522982.00952792 -24334758.933397666 -15928193.415218888 -9579918.037373237 -4844464.828916215
          -1276365.818903332 1364856.6051865586 3319680.0558746015 4720786.824358519 5700859.201836035 6323476.081330727
          6652216.355866171 6703722.137858813 6494635.539725093 6001247.305980197 5199848.181139308 4016343.74933339
          2376639.594693406 147068.53753879367 -2806036.601811011 -6770344.367781468 -12033523.304798039 -18891098.109866872
          -27638593.479994126 -39765159.7290945 -56759947.1710827 -330298079.07387096 -240653988.7028162 -177637011.83034363
          -132835941.35731997 -97839570.18461174 -71090784.45881528 -51032470.32652693 -36100390.71233441 -24730308.54082539
          -16187098.410716444 -9735634.920724152 -4923209.2358585 -1297112.5211294855 1387041.681988497 3373639.8320210488
          4797520.905931166 5793523.880681847 6426261.093114603 6760344.88007094 6812687.8633673135 6600202.664820173
          6098794.64658997 5284369.170837149 4081627.4531928124 2415270.7092880635 149459.06479619027 -2851647.3546095183
          -6880393.004881166 -12229122.341970854 -19198163.672330007 -28087845.30241005 -40411522.95631698 -57682552.3581568
          -335345182.7504496 -244331290.2321074 -180351385.5203863 -134865734.4766494 -99334602.96225968 -72177083.72161844
          -51812269.499127045 -36652020.97109173 -25108198.813818835 -16434444.578212041 -9884399.815175086 -4998438.094458529
          -1316932.98581294 1408236.3046396198 3425190.5707770865 4870829.189969969 5882051.539588776 6524457.262135173
          6863646.000110831 6916788.807824941 6701056.739586701 6191986.980619421 5365116.716146424 4143996.5623997436
          2452177.135611413 151742.86688395578 -2895221.8126801043 -6985528.514224254 -12415988.84889198 -19491520.27516973
          -28517040.251543973 -41029029.260394596 -58563967.78410149 -340126688.87738544 -247815078.34454635 -182922918.67250177
          -136788712.25853798 -100750961.49994119 -73206217.8370594 -52551032.7102406 -37174622.37357161 -25466203.08113926
          -16668774.461192664 -10025336.141980952 -5069708.1278377725 -1335710.4230967686 1428315.5867216147 3474028.5160969333
          4940279.716799104 5965920.540598044 6617485.979923371 6961511.027204705 7015411.569554855 6796603.494086631
          6280275.183939041 5441615.022251095 4203083.574716778 2487141.407030069 153906.48656727572 -2936503.219295298
          -7085131.398409874 -12593021.738628674 -19769439.35205267 -28923649.35078284 -41614040.06385594 -59398999.820308715
          -344613066.68637043 -251083837.02916765 -185335729.39806107 -138592998.31764424 -102079898.31251085 -74171830.83308642
          -53244197.32979661 -37664967.313410744 -25802110.29469819 -16888640.829343073 -10157573.473029515 -5136579.1695917575
          -1353328.862864022 1447155.5177661802 3519852.042911338 5005443.557263159 6044612.905513354 6704772.697529962
          7053335.543181025 7107947.050597732 6886252.827911279 6363113.985244401 5513391.632719837 4258523.566549416
          2519947.582944963 155936.56135714342 -2975236.6187633784 -7178586.506024091 -12759127.649032481 -20030204.4638088
          -29305161.3663733 -42162942.317082316 -60182491.2762922 -348775384.76451993 -254116486.9633396 -187574258.1469035
          -140266957.3115745 -103312843.45371547 -75067695.73844695 -53887293.330889404 -38119893.69178942 -26113754.28189354
          -17092625.82539195 -10280259.046474794 -5198619.986988156 -1369674.6887781054 1464634.6041754049 3562365.6478924197
          5065900.48771709 6117621.168993573 6785754.52702654 7138527.3971206695 7193798.515233763 6969426.617323623
          6439969.180058334 5579983.68010598 4309959.020810802 2550384.1055170433 157820.00001236782 -3011172.229915562
          -7265291.170690703 -12913235.408737015 -20272134.0079992 -29659116.03242196 -42672196.300741374 -60909389.6316935
          -352585723.3471412 -256892685.90710992 -189623489.4407468 -141799360.7514983 -104441526.64281075 -75887803.32038347
          -54476006.9899158 -38536349.97881078 -26399044.614471406 -17279361.170074962 -10392569.918798722 -5255414.426034911
          -1384638.2571757569 1480635.6007394977 3601284.1606716095 5121244.978544414 6184455.610281751 6859888.263007202
          7216515.143844349 7272390.093778038 7045566.95379311 6510325.24336057 5640944.481951417 4357044.921587227
          2578246.8142895694 159544.16885410022 -3044069.00592353 -7344663.799762125 -13054311.302380485 -20493605.18320091
          -29983139.111645687 -43138386.06945455 -61574819.0383672 -356017599.0223342 -259393138.14190778 -191469180.28348103
          -143179557.80629164 -105458103.06957714 -76626453.495405 -55006246.5058427 -38911441.63268333 -26655998.407719996
          -17447548.976200037 -10493725.483370772 -5306567.742053129 -1398115.5650680247 1495047.2940303243 3636337.0816877047
          5171092.362899602 6244651.702661505 6926658.645658973 7286756.73657757 7343175.542568879 7114144.630784477
          6573693.171672418 5695850.335680748 4399454.002535041 2603342.0519608655 161097.0841204696 -3073698.3008238995
          -7416152.721086816 -13181374.794882856 -20693078.67423651 -30274978.511172283 -43558271.413686216 -62174154.4897744
          -359046391.2530597 -261599905.23333123 -193098089.5487353 -144397646.83741474 -106355279.73751217 -77278347.13107297
          -55474207.900142536 -39242477.71743127 -26882772.25564954 -17595982.651709132 -10583000.042521797 -5351712.957298293
          -1410009.9252493829 1507766.2934458063 3667272.9386081486 5215085.031851037 6297777.594787866 6985586.659182605
          7348748.256799233 7405647.041423428 7174667.666840867 6629618.35867332 5744307.342542553 4436882.01770331
          2625489.7834103256 162467.60510369248 -3099847.5517765037 -7479245.067680661 -13293514.32305918 -20869123.443085466
          -30532540.55293292 -43928840.044027954 -62703096.30779696 -361649759.05073446 -263496709.61780113 -194498202.0700295
          -145444642.97214365 -107126438.88886754 -77838675.72725444 -55876439.39435769 -39527016.443562 -27077693.428252075
          -17723567.31965058 -10659735.08898017 -5390517.071516166 -1420233.6025338906 1518698.7810287168 3693863.542233713
          5252898.486502792 6343441.419257645 7036237.638551723 7402032.4424384795 7459343.787855224 7226689.631739269
          6677688.288816338 5785958.07381215 4469052.890460666 2644526.642495842 163645.62260205965 -3122323.8765362995
          -7533475.45749665 -13389902.7228564 -21020440.94761958 -30753925.4067902 -44247358.57072715 -63157742.90978931
          -363808035.51086575 -265069222.05964476 -195658940.82505068 -146312636.77369165 -107765754.87217586 -78303206.33266929
          -56209902.36733796 -39762908.289203905 -27239289.41128919 -17829339.15326929 -10723350.934819674 -5422686.942550272
          -1428709.3630710095 1527762.1683095547 3715908.016282867 5284247.068566444 6381298.212877802 7078228.945564878
          7446206.7629756145 7503860.134690077 7269817.530288339 6717539.822194727 5820487.88283357 4495723.588875923
          2660308.816992844 164622.23737923443 -3140957.4797700024 -7578434.212015112 -13469811.836916342 -21145888.073571496
          -30937460.641078375 -44511420.77464741 -63534659.709489 -365504587.82968295 -266305323.9580085 -196571360.5556719
          -146994939.02918664 -108268300.785066 -78668359.03220175 -56472026.97948566 -39948335.348746344 -27366314.86181242
          -17912483.019626256 -10773357.323130189 -5447974.652574747 -1435371.8882104626 1534886.6081150225 3733236.4745540675
          5308889.18952827 6411056.231459227 7111236.97331395 7480930.788059448 7538853.0157414265 7303718.996405587
          6748865.842102082 5847630.66488107 4516688.574625621 2672714.6812188057 165389.92311425586 -3155604.761234402
          -7613774.85565156 -13532625.843961613 -21244498.060000386 -31081731.83760371 -44718991.654775664 -63830941.989520326
          -366726130.9180499 -267195335.8448807 -197228316.43215612 -147486206.87581465 -108630141.37179482 -78931274.4468006
          -56660760.627536066 -40081845.609790854 -27457775.089354653 -17972347.84910857 -10809362.671933724 -5466182.182662698
          -1440169.00612807 1540016.311521636 3745713.2241378934 5326631.885826146 6432482.450691841 7135003.247840171
          7505932.606376335 7564048.414382661 7328128.559941477 6771421.045779397 5867173.8746230295 4531783.678473154
          2681647.089330547 165942.66834157667 -3166151.0233473913 -7639220.648569416 -13577852.870157557 -21315498.72767086
          -31185609.26066838 -44868445.798429534 -64044269.670233734 -367462983.83275825 -267732204.219978 -197624601.96397397
          -147782546.9297378 -108848408.98226133 -79089868.92570892 -56774607.56424501 -40162380.98012125 -27512945.255589277
          -18008459.20245892 -10831081.632540023 -5477165.234956683 -1443062.698833009 1543110.6247221204 3753239.3845998314
          5337334.543476383 6445407.064028034 7149339.417248502 7521014.0741315065 7579246.652662418 7342852.770826612
          6785026.679285216 5878962.628699358 4540889.269078989 2687035.2504340573 166276.09246604054 -3172512.685123587
          -7654569.928387685 -13605134.483379114 -21358327.383828435 -31248269.66346623 -44958598.75530037 -64172952.09233872
          -367709259.92919177 -267911640.09527647 -197757051.26545468 -147881591.7597674 -108921359.89825603 -79142875.47342154
          -56812658.27776498 -40189298.07067614 -27531384.61154476 -18020528.58966473 -10838340.694329925 -5480836.066940993
          -1444029.8488985836 1544144.8275595056 3755754.8301954796 5340911.660014051 6449726.818019938 7154130.951309868
          7526054.706980572 7584326.31336723 7347773.998805016 6789574.04856681 5882902.7479254855 4543932.6027836725
          2688836.119043996 166387.53179271868 -3174638.9238839014 -7659700.071242163 -13614252.733538367 -21372641.874606214
          -31269212.458279416 -44988730.3023911 -64215961.2247744 -367462983.8327596 -267732204.2199788 -197624601.9639746
          -147782546.92973834 -108848408.9822616 -79089868.92570902 -56774607.564245276 -40162380.98012161 -27512945.255589277
          -18008459.202458505 -10831081.632539535 -5477165.234956342 -1443062.6988329045 1543110.624722095 3753239.384599978
          5337334.543476586 6445407.064027766 7149339.417247703 7521014.074130586 7579246.652661603 7342852.770825935
          6785026.679284694 5878962.628698991 4540889.269078732 2687035.2504338273 166276.0924658816 -3172512.6851235013
          -7654569.928387326 -13605134.483378598 -21358327.383827783 -31248269.663465362 -44958598.755299695 -64172952.09233913
          -366726130.91805106 -267195335.84488097 -197228316.4321564 -147486206.87581518 -108630141.37179524 -78931274.44680087
          -56660760.62753649 -40081845.609791376 -27457775.089354835 -17972347.849108353 -10809362.671933403 -5466182.182662438
          -1440169.006127897 1540016.3115217658 3745713.2241381 5326631.885826227 6432482.450691265 7135003.247838942
          7505932.60637498 7564048.414381492 7328128.559940594 6771421.045778817 5867173.874622691 4531783.678472948
          2681647.089330312 165942.66834139224 -3166151.0233472027 -7639220.648568825 -13577852.87015683 -21315498.72767005
          -31185609.260667317 -44868445.79842873 -64044269.67023436 -365504587.8296821 -266305323.95800665 -196571360.5556707
          -146994939.02918655 -108268300.78506643 -78668359.03220226 -56472026.97948608 -39948335.3487467 -27366314.861813013
          -17912483.019627064 -10773357.323130913 -5447974.652575121 -1435371.8882102475 1534886.6081155785 3733236.4745542346
          5308889.189527792 6411056.231458321 7111236.973312838 7480930.788058351 7538853.015740551 7303718.996405139
          6748865.842102062 5847630.664881274 4516688.574625842 2672714.6812188327 165389.923114181 -3155604.7612341796
          -7613774.855651047 -13532625.843961218 -21244498.06000021 -31081731.837603528 -44718991.65477561 -63830941.9895209
          -363808035.510864 -265069222.05964231 -195658940.82504877 -146312636.7736909 -107765754.872176 -78303206.33266982
          -56209902.36733818 -39762908.289203845 -27239289.411289677 -17829339.153270397 -10723350.934820762 -5422686.942550808
          -1428709.3630705723 1527762.1683105396 3715908.016283126 5284247.068565685 6381298.212876715 7078228.945563806
          7446206.76297455 7503860.134689173 7269817.530287903 6717539.822194765 5820487.882833781 4495723.58887606
          2660308.8169927155 164622.23737888638 -3140957.4797702897 -7578434.212015323 -13469811.836916726 -21145888.073572118
          -30937460.64107911 -44511420.77464811 -63534659.7094895 -361649759.05073553 -263496709.61780185 -194498202.07002935
          -145444642.97214288 -107126438.88886721 -77838675.7272547 -55876439.39435768 -39527016.44356147 -27077693.428251524
          -17723567.31965018 -10659735.088979837 -5390517.071515718 -1420233.6025330394 1518698.7810297643 3693863.5422342652
          5252898.486502533 6343441.419256635 7036237.638550135 7402032.442436599 7459343.787853352 7226689.631737723
          6677688.2888151705 5785958.07381115 4469052.890459682 2644526.6424947833 163645.62260084736 -3122323.876537735
          -7533475.45749817 -13389902.72285766 -21020440.947620485 -30753925.406790935 -44247358.57072781 -63157742.90978988
          -359046391.2530627 -261599905.23333472 -193098089.548737 -144397646.8374144 -106355279.73751184 -77278347.13107328
          -55474207.90014267 -39242477.71743079 -26882772.255648524 -17595982.651707802 -10583000.042520618 -5351712.957297471
          -1410009.9252488539 1507766.293446129 3667272.9386083744 5215085.031850946 6297777.594786908 6985586.659180824
          7348748.25679726 7405647.041421536 7174667.666838976 6629618.358671479 5744307.342540943 4436882.017701971
          2625489.783409167 162467.6051025217 -3099847.551777973 -7479245.067682258 -13293514.323060276 -20869123.44308593
          -30532540.552933116 -43928840.04402814 -62703096.30779731 -356017599.0223347 -259393138.1419098 -191469180.28348252
          -143179557.80629215 -105458103.06957792 -76626453.49540627 -55006246.5058437 -38911441.63268381 -26655998.407720312
          -17447548.976200417 -10493725.483371375 -5306567.742054001 -1398115.5650691113 1495047.2940291252 3636337.081686537
          5171092.362898501 6244651.702660399 6926658.645658097 7286756.736577465 7343175.542569329 7114144.630784515
          6573693.171671959 5695850.335680601 4399454.002535468 2603342.0519615817 161097.08412127793 -3073698.300823104
          -7416152.721086075 -13181374.794882137 -20693078.674235903 -30274978.51117196 -43558271.41368606 -62174154.4897739
          -352585723.3471394 -256892685.90711 -189623489.4407478 -141799360.7514998 -104441526.6428128 -75887803.32038584
          -54476006.98991782 -38536349.9788124 -26399044.614473283 -17279361.170077316 -10392569.91880132 -5255414.426037486
          -1384638.2571780032 1480635.600737601 3601284.1606698004 5121244.978542818 6184455.610280876 6859888.26300744
          7216515.143845973 7272390.093780479 7045566.953794961 6510325.243361609 5640944.481952611 4357044.921588971
          2578246.814291687 159544.1688564857 -3044069.0059209056 -7344663.799759511 -13054311.302378353 -20493605.183199484
          -29983139.111644946 -43138386.06945406 -61574819.038366124 -348775384.764521 -254116486.9633414 -187574258.14690557
          -140266957.31157675 -103312843.45371808 -75067695.73844977 -53887293.330891944 -38119893.69179157 -26113754.28189563
          -17092625.825394154 -10280259.046477174 -5198619.9869904015 -1369674.6887795536 1464634.604174801 3562365.647892091
          5065900.487716862 6117621.16899366 6785754.52702712 7138527.397121878 7193798.515235333 6969426.617324884
          6439969.180059052 5579983.680106355 4309959.020811194 2550384.10551797 157820.00001386795 -3011172.229913928
          -7265291.170689165 -12913235.408735588 -20272134.0079979 -29659116.032420795 -42672196.30074038 -60909389.63169277
          -344613066.68637395 -251083837.02917162 -185335729.39806452 -138592998.31764704 -102079898.31251355 -74171830.83308923
          -53244197.329799235 -37664967.313413024 -25802110.2947001 -16888640.829344686 -10157573.473030975 -5136579.169592859
          -1353328.8628642322 1447155.5177668172 3519852.042912199 5005443.557263903 6044612.905513919 6704772.697530293
          7053335.543181069 7107947.05059758 6886252.827911156 6363113.985244206 5513391.63271914 4258523.56654842
          2519947.5829445035 155936.56135734732 -2975236.618763097 -7178586.506023855 -12759127.649031952 -20030204.463807743
          -29305161.366371572 -42162942.31708048 -60182491.27629149 -340126688.8773867 -247815078.3445499 -182922918.6725055
          -136788712.25854102 -100750961.49994394 -73206217.83706205 -52551032.71024301 -37174622.373573855 -25466203.08114163
          -16668774.46119497 -10025336.141982527 -5069708.127838473 -1335710.4230969667 1428315.586721525 3474028.516096541
          4940279.716798456 5965920.540597651 6617485.979923277 6961511.027204484 7015411.569554426 6796603.49408626
          6280275.1839388395 5441615.022251019 4203083.574716841 2487141.4070303394 153906.48656785517 -2936503.2192942756
          -7085131.398408521 -12593021.738627348 -19769439.352051176 -28923649.3507804 -41614040.06385295 -59398999.820306726
          -335345182.7504496 -244331290.23210996 -180351385.52038947 -134865734.47665218 -99334602.96226229 -72177083.72162093
          -51812269.49912918 -36652020.97109373 -25108198.81382126 -16434444.578214698 -9884399.815176934 -4998438.094459491
          -1316932.985813888 1408236.304638215 3425190.570775159 4870829.189967913 5882051.539587445 6524457.262134743
          6863646.000110798 6916788.807825028 6701056.739586857 6191986.980619756 5365116.716147189 4143996.5624008616
          2452177.1356124766 151742.86688511906 -2895221.8126781294 -6985528.514221585 -12415988.848889563 -19491520.275167562
          -28517040.251541063 -41029029.260390975 -58563967.784098215 -330298079.0738754 -240653988.70281947 -177637011.83034608
          -132835941.35732195 -97839570.18461385 -71090784.4588176 -51032470.3265289 -36100390.71233591 -24730308.54082667
          -16187098.410717703 -9735634.920725454 -4923209.235859912 -1297112.5211310626 1387041.6819868414 3373639.832019547
          4797520.9059299575 5793523.880680977 6426261.093114103 6760344.880070837 6812687.863367597 6600202.6648208
          6098794.646590688 5284369.170837499 4081627.453192795 2415270.709288139 149459.06479673414 -2851647.3546082196
          -6880393.004879165 -12229122.34196855 -19198163.672327522 -28087845.30240721 -40411522.95631381 -57682552.35815347
          -325015117.2667569 -236804841.79083326 -174795791.70660916 -130711293.20063846 -96274672.45947513 -69953720.930534
          -50216230.06122994 -35522982.00952929 -24334758.93339842 -15928193.415219374 -9579918.0373742 -4844464.828917743
          -1276365.8189048306 1364856.605185519 3319680.055874292 4720786.8243587315 5700859.201836081 6323476.081330429
          6652216.35586586 6703722.137858758 6494635.539725493 6001247.305980826 5199848.181139513 4016343.7493331847
          2376639.594693471 147068.53753942356 -2806036.601809906 -6770344.367779894 -12033523.304795919 -18891098.10986431
          -27638593.479991395 -39765159.72909157 -56759947.17107923 -319525883.81263626 -232805406.10176343 -171843637.00295034
          -128503688.80001155 -94648673.77676181 -68772261.1014509 -49368119.942328654 -34923028.559153475 -23923765.21168379
          -15659179.552888663 -9418121.235737145 -4762645.870676239 -1254809.068152944 1341805.3186393746 3263613.436507351
          4641056.683741304 5604576.45863155 6216677.859883224 6539865.986201452 6590501.878646063 6384946.578276881
          5899891.259102062 5112027.095129761 3948511.063194933 2336500.140132532 144584.6731127308 -2758644.990694299
          -6655998.914636305 -11830287.16206104 -18572043.265060417 -27171800.75572634 -39093559.44484627 -55801319.14320763
          -313859485.5659286 -228676888.78339025 -168796201.62161866 -126224834.0527446 -92970196.04889892 -67552669.70131306
          -48492637.10121845 -34303711.633348145 -23499506.6824352 -15381483.27749306 -9251102.44753515 -4678186.207696619
          -1232556.573112619 1318010.0536640866 3205737.2700807313 4558753.256787201 5505186.194433384 6106432.730736312
          6423889.513413027 6473627.440597051 6271717.41042191 5795263.950232163 5021371.587372374 3878489.0800304417
          2295065.1863942696 142020.64207518112 -2709723.8173155 -6537962.966756241 -11620491.581225513 -18242690.938214935
          -26689942.31521613 -38400283.28838594 -54811751.4338812
        </DataArray>
        <DataArray type="Float64" Name="theta" format="ascii" RangeMin="274.0519968333365" RangeMax="436.9966824696711">
          373 348.4384579912674 329.8562819869722 315.93955494004814 305.374359803429 297.44488435470663
          291.43531637147294 286.9305449886921 283.5154593413279 280.95662924568956 279.0206245180859 277.57472790061183
          276.48622213536186 275.68092273357365 275.0846452064848 274.6571317645036 274.35812461803823 274.16817555113306
          274.06783634783244 274.05199683333655 274.1155468328455 274.26585342191436 274.51028367609837 274.87083581928437
          275.36950807535936 276.0493225198282 276.9533012281956 278.1594726992265 279.74586543168607 281.84616248623996
          284.59404692355406 288.2313742570126 293 379.73411715601634 354.7291427038006 335.81148533160564
          321.64350662151196 310.8875681556001 302.814934485276 296.69687016194547 292.1107699366639 288.6340285604869
          286.0290015167348 284.05804428872824 282.5860435500274 281.4778859741925 280.6580477506421 280.05100506879495
          279.6157733276072 279.3113679260351 279.11798953132774 279.01583881073384 278.9997133306983 279.06441065766546
          279.21743087188213 279.4662740535948 279.8333355811592 280.3410108329308 281.0330986021003 281.9533976818584
          283.1813452922894 284.79637865347763 286.9345943311622 289.73208889108247 293.435084289952 298.2898024844847
          386.2576863734398 360.8231437727505 341.58049414486015 327.16911936996587 316.22840132826497 308.01708540070877
          301.79391696824837 297.1290307163603 293.5925613305211 290.9427817257919 288.9379648172336 287.4406761250063
          286.3134811692701 285.479558692668 284.8620874378428 284.4193787166813 284.10974384107044 283.9130433394308
          283.80913774018296 283.79273523556503 283.85854401781523 284.014193013366 284.2673111486497 284.6406785391163
          285.1570753002159 285.86105265808123 286.79716183884494 288.0462047390329 289.6889832551709 291.86393199776865
          294.70948557733567 298.47609587332647 303.41421476519525 392.5361161950019 366.6881475411998 347.1327180527869
          332.4870934277318 321.3685393640031 313.0237525111744 306.6994295188195 301.9587178219207 298.36476485546063
          295.671914378933 293.6345101518319 292.1128837640496 290.9673668054784 290.1198893267865 289.4923813786422
          289.0424766436919 288.72780880458174 288.5279110324695 288.4223164985133 288.40564737920334 288.4725258510303
          288.63070484489526 288.8879372916995 289.26737358653065 289.79216412447664 290.5075842900666 291.4589094678293
          292.72825494960875 294.3977360272486 296.60803749816125 299.499844159759 303.327678864332 308.34606446417035
          398.5342451595362 372.2913078823127 352.43706260806755 337.567646230756 326.27919564433296 317.80689668329364
          311.3859351821329 306.57278327153534 302.92391308218555 300.1899146353845 298.1213779524333 296.5765004269004
          295.4134794523544 294.5530521354132 293.91595558269495 293.45917610040124 293.139699994734 292.9367476944716
          292.82953962839315 292.81261579741926 292.88051620247074 293.041112242731 293.30227531738353 293.6875095699984
          294.22031914414544 294.9466712526572 295.9125331083663 297.2012747618255 298.89626626358773 301.1403421382458
          304.07633691039223 307.96266265633875 313.05773145239704 404.2167300528573 377.5996088844238 357.462272633156
          342.3808412660091 330.9314347499378 322.3383338466751 315.8258193179538 310.944039269741 307.2431418080038
          304.4701607516503 302.3721299195891 300.80522481849033 299.6256209550238 298.7529252689532 298.1067447000422
          297.64345224542745 297.31942090224607 297.11357481457566 297.00483812649446 296.98767298774067 297.0565415480526
          297.2194274406501 297.48431429875274 297.87504139883913 298.415448017388 299.15215678893185 300.13179034800345
          301.43890747374934 303.15806694531597 305.43413988775944 308.4119974261355 312.3537361952039 317.52145282972435
          409.5484756263038 382.5802662731996 362.1773122346505 346.8969520529479 335.29652427038275 326.59007766839756
          319.9916610284353 315.04548876874924 311.29577530759315 308.48621776052767 306.36051324311364 304.77294017180054
          303.57777696303765 302.69357014688467 302.038866253401 301.5694628258591 301.24115740753126 301.032596145339
          300.9224251862039 300.90503363388086 300.97481059212464 301.1398450007836 301.4082257997059 301.8041067129114
          302.35164146441986 303.09806765595056 304.0906228892228 305.41498130022734 307.15681702495505 309.4629120840836
          312.4800484982907 316.47378003923404 321.70966047857104 414.49509892292735 387.20116116258095 366.5517754223568
          351.0868554384474 339.3463149470452 330.534709824994 323.85659594913756 318.85068265173567 315.055679265048
          312.21218721781304 310.06080793876924 308.45405978463435 307.2444611121265 306.3495746370415 305.68696307517513
          305.2118900820791 304.8796193133047 304.66853899888855 304.5570373688672 304.53943575726447 304.61005549810363
          304.77708323136073 305.0487055970116 305.449368053464 306.00351605912607 306.75895776263627 307.7635013126336
          309.1038556375746 310.86672966591624 313.20067828627776 316.2542563872786 320.2962251618013 325.59534580272845
          419.0234192594158 391.43129777206235 370.55631941656617 354.9224466227266 343.05364182034276 334.145770733326
          327.39469908558743 322.33409665182126 318.4976332067213 315.62307627380346 313.4481933765839 311.82389164856875
          310.60107822326415 309.696415196817 309.0265646653739 308.5463015440916 308.2104007481267 307.9970144009423
          307.88429462600203 307.8665007184327 307.9378919733607 308.10674446904136 308.3813342837294 308.78637394018807
          309.346575961181 310.11027079491623 311.12578888960206 312.48078646065994 314.26291972351106 316.62236651509187
          319.70930467233876 323.79543157912576 329.1524446193265 423.10196295719163 395.2412749219362 374.1631109985225
          358.3770666781659 346.39273745208175 337.3981620430328 330.5813791737812 325.4715196168697 321.597714144841
          318.69517785438904 316.49912584220806 314.8590140537725 313.62429843455675 312.7108299153481 312.03445942693384
          311.5495216883471 311.2103514186213 310.9948880859953 310.88107115870844 310.86310405502087 310.93519019319285
          311.1056862062772 311.38294872732655 311.79193081722053 312.35758553683877 313.1287137564135 314.1541163461769
          315.52230271898173 317.32178228768043 319.70419463774726 322.8211793546564 326.9470783753111 332.3562336366143
          426.70147023362273 398.60375954640796 377.346274771146 361.425931897788 349.33964691628546 340.2685508515369
          333.3937747284412 328.2404434359506 324.3336818630176 321.4064524692189 319.1917177141312 317.5376528013106
          316.2924329343134 315.3711931522189 314.6890684941061 314.200005185157 313.8579494505533 313.6406530802638
          313.5258678642571 313.5077479068223 313.5804473122481 313.7523938069976 314.0320151175335 314.44447659097426
          315.0149435744378 315.7926321077914 316.82675823090193 318.2065843436171 320.02137284578436 322.42405338494115
          325.5675556086249 329.7285553965813 335.18372862855614 429.7953903895953 401.4939492737411 380.0823310698424
          364.0465532304907 351.87263320827765 342.73576458611063 335.8111409468969 330.620443962773 326.68535530587536
          323.7369012042787 321.5061078860575 319.8400497059761 318.58580101879943 317.65788152611304 316.9708109295027
          316.4782015281807 316.1336656213593 315.9147936820437 315.79917618323935 315.7809248419087 315.8541513750139
          316.02734461664136 316.3089934008774 316.7244455433344 317.2990488596245 318.0823762444849 319.1240005926528
          320.5138315263487 322.34177866779277 324.76188052435066 327.928175603388 332.11934590166845 337.61407341595554
          432.3603506875953 403.89001042935496 382.35061060695364 366.2191334315336 353.9725611142372 344.7811649057163
          337.81521605662294 332.59354170051944 328.63496897096826 325.6689188972411 323.42481250860953 321.74881152043486
          320.4870776480785 319.5536204583585 318.86244951809255 318.3669002910184 318.02030824087393 317.80013010366224
          317.6838226153867 317.6654623525392 317.7391258916113 317.9133527268942 318.1966823526788 318.61461385688546
          319.1926463274344 319.98064850334055 321.02848912361895 322.4266143788585 324.2654704596479 326.70001515416544
          329.8852062505893 334.10138888184866 339.6289081808724 434.37658420616884 405.7734777166525 384.13363283766165
          367.92692946508123 355.6232474947963 346.3889888889983 339.39055560987833 334.14453092922935 330.16749811884443
          327.18761641239024 324.9330450435337 323.2492283308965 321.98161059310036 321.04380039628535 320.3494063065918
          319.85154617621635 319.50333785735603 319.2821329596202 319.1652830926183 319.1468372100388 319.2208442655697
          319.3958835758738 319.68053445761404 320.10041490904945 320.6811429284388 321.47281980855234 322.5255468421603
          323.93019199913994 325.7776232493685 328.22352099836417 331.42356565164516 335.6594096804587 341.21270555605213
          435.82830254802826 407.12960238280544 385.4174355581388 369.15656819651645 356.8117664204269 347.5466462463977
          340.5248236909563 335.2612664118025 331.2709420666367 328.28110137738497 326.01899506597357 324.3295509146231
          323.05769670555435 322.11675227841147 321.4200374728388 320.920513457463 320.57114140091136 320.34919722021453
          320.2319568324035 320.213449302334 320.287703694862 320.4633279993544 320.7489302051786 321.170213927819
          321.75288278275985 322.54720550495955 323.60345082937613 325.0127904132939 326.86639591399717 329.3204680323157
          332.5312074690793 336.78120799871135 342.3530633956361 436.7040005907016 407.94763690198823 386.1918444066631
          369.89830452323 357.52869867019245 348.24496234031903 341.2090310263782 335.9348978236787 331.93655582752905
          328.9407077320943 326.6740562315392 324.9812175256636 323.7068078142676 322.7639727728891 322.065858077066
          321.56533038157147 321.21525634117825 320.99286621403076 320.87539025827357 320.8568455415235 320.9312491313978
          321.1072263130642 321.3934023716904 321.81553256834167 322.39937216408305 323.19529089748477 324.2536585071171
          325.66582983901424 327.5231597392102 329.98216275838587 333.19935344722245 337.45789338818565 343.0409441637415
          436.9966824696711 408.2210460778332 386.4506727080088 370.1462127875215 357.7683167436949 348.4783583929807
          341.4377115518303 336.1600435905446 332.15902187942424 329.16116594699116 326.8929953217674 325.1990220643133
          323.923758235189 322.98029129959593 322.2817087227354 321.7808455703038 321.4305369079979 321.20799773353207
          321.0904430446205 321.0718858990799 321.1463393547271 321.3224344774522 321.6088023331456 322.03121544421697
          322.61544633307614 323.41189849642143 324.47097543095157 325.88409320931635 327.7426679041658 330.20331896325666
          333.422665834346 337.68405987664534 343.2708524493664 436.70400059070164 407.94763690198835 386.1918444066632
          369.8983045232302 357.52869867019257 348.2449623403191 341.2090310263782 335.93489782367874 331.9365558275291
          328.9407077320942 326.67405623153917 324.98121752566357 323.7068078142676 322.7639727728892 322.0658580770662
          321.5653303815716 321.21525634117836 320.992866214031 320.8753902582738 320.85684554152374 320.931249131398
          321.10722631306436 321.39340237169057 321.81553256834167 322.39937216408316 323.1952908974849 324.25365850711717
          325.6658298390142 327.5231597392102 329.982162758386 333.1993534472225 337.4578933881857 343.0409441637415
          435.8283025480281 407.1296023828055 385.4174355581388 369.1565681965164 356.811766420427 347.54664624639776
          340.5248236909562 335.2612664118025 331.2709420666366 328.28110137738486 326.0189950659734 324.3295509146229
          323.05769670555424 322.1167522784115 321.42003747283877 320.9205134574631 320.5711414009114 320.34919722021465
          320.2319568324037 320.2134493023342 320.2877036948621 320.4633279993546 320.74893020517874 321.170213927819
          321.75288278275997 322.54720550495955 323.6034508293761 325.01279041329377 326.86639591399705 329.32046803231566
          332.53120746907916 336.7812079987113 342.3530633956361 434.3765842061688 405.7734777166523 384.13363283766154
          367.92692946508123 355.6232474947964 346.38898888899826 339.3905556098783 334.1445309292293 330.1674981188444
          327.1876164123903 324.93304504353375 323.2492283308966 321.9816105931003 321.04380039628535 320.34940630659173
          319.85154617621646 319.50333785735614 319.2821329596204 319.1652830926186 319.14683721003894 319.2208442655698
          319.39588357587394 319.68053445761416 320.1004149090495 320.6811429284389 321.4728198085524 322.5255468421603
          323.93019199913994 325.77762324936833 328.2235209983639 331.42356565164505 335.6594096804586 341.21270555605213
          432.36035068759526 403.8900104293547 382.3506106069534 366.2191334315335 353.9725611142371 344.7811649057162
          337.81521605662266 332.59354170051927 328.63496897096815 325.6689188972412 323.42481250860965 321.74881152043497
          320.4870776480785 319.5536204583583 318.8624495180923 318.36690029101834 318.020308240874 317.8001301036624
          317.6838226153869 317.66546235253924 317.7391258916113 317.9133527268942 318.19668235267886 318.6146138568855
          319.19264632743455 319.9806485033406 321.02848912361907 322.4266143788585 324.26547045964776 326.7000151541652
          329.88520625058925 334.10138888184866 339.6289081808724 429.79539038959535 401.4939492737412 380.0823310698424
          364.04655323049064 351.8726332082774 342.73576458611035 335.81114094689656 330.6204439627727 326.6853553058751
          323.73690120427847 321.5061078860573 319.840049705976 318.5858010187994 317.65788152611293 316.97081092950253
          316.4782015281806 316.1336656213593 315.91479368204386 315.7991761832397 315.780924841909 315.8541513750141
          316.0273446166415 316.3089934008776 316.72444554333464 317.29904885962475 318.08237624448515 319.1240005926531
          320.5138315263489 322.34177866779294 324.7618805243508 327.9281756033881 332.1193459016685 337.61407341595554
          426.70147023362273 398.6037595464082 377.3462747711461 361.4259318977879 349.3396469162853 340.26855085153676
          333.39377472844103 328.24044343595045 324.3336818630174 321.40645246921844 319.19171771413073 317.53765280131023
          316.2924329343133 315.37119315221884 314.68906849410604 314.2000051851569 313.85794945055335 313.640653080264
          313.52586786425735 313.50774790682266 313.5804473122485 313.7523938069979 314.03201511753383 314.4444765909745
          315.0149435744381 315.7926321077917 316.8267582309023 318.20658434361764 320.02137284578475 322.42405338494154
          325.5675556086252 329.7285553965815 335.1837286285562 423.10196295719163 395.2412749219364 374.1631109985226
          358.37706667816593 346.39273745208203 337.398162043033 330.5813791737815 325.47151961686995 321.59771414484106
          318.69517785438904 316.4991258422082 314.85901405377257 313.6242984345569 312.71082991534826 312.034459426934
          311.5495216883473 311.2103514186214 310.99488808599534 310.8810711587083 310.86310405502064 310.93519019319297
          311.1056862062775 311.3829487273268 311.7919308172206 312.3575855368389 313.1287137564137 314.15411634617715
          315.52230271898196 317.32178228768066 319.7041946377475 322.8211793546567 326.9470783753113 332.35623363661426
          419.02341925941573 391.43129777206224 370.55631941656634 354.9224466227269 343.0536418203432 334.1457707333265
          327.3946990855881 322.3340966518218 318.49763320672173 315.623076273804 313.4481933765844 311.8238916485693
          310.6010782232646 309.69641519681727 309.0265646653742 308.5463015440919 308.21040074812686 307.9970144009423
          307.8842946260018 307.8665007184322 307.93789197336054 308.1067444690414 308.38133428372953 308.78637394018824
          309.34657596118114 310.11027079491635 311.12578888960223 312.48078646066 314.2629197235112 316.622366515092
          319.70930467233893 323.7954315791259 329.1524446193265 414.49509892292735 387.20116116258095 366.5517754223569
          351.0868554384476 339.34631494704547 330.53470982499437 323.856595949138 318.8506826517361 315.05567926504847
          312.21218721781355 310.0608079387697 308.4540597846349 307.2444611121269 306.3495746370416 305.6869630751752
          305.2118900820791 304.8796193133047 304.66853899888855 304.5570373688672 304.53943575726447 304.61005549810375
          304.777083231361 305.0487055970119 305.44936805346447 306.00351605912635 306.75895776263656 307.7635013126338
          309.1038556375749 310.86672966591647 313.20067828627793 316.2542563872788 320.2962251618015 325.5953458027285
          409.54847562630385 382.5802662731997 362.1773122346506 346.8969520529479 335.2965242703827 326.59007766839767
          319.99166102843543 315.0454887687495 311.2957753075933 308.48621776052784 306.36051324311387 304.77294017180077
          303.57777696303776 302.6935701468846 302.0388662534009 301.569462825859 301.24115740753115 301.0325961453391
          300.92242518620424 300.9050336338813 300.9748105921252 301.139845000784 301.40822579970643 301.804106712912
          302.35164146442025 303.09806765595084 304.0906228892231 305.4149813002277 307.1568170249553 309.4629120840839
          312.48004849829096 316.4737800392342 321.70966047857104 404.2167300528574 377.59960888442384 357.46227263315603
          342.3808412660091 330.93143474993786 322.3383338466752 315.82581931795403 310.9440392697412 307.243141808004
          304.47016075165055 302.3721299195893 300.8052248184904 299.62562095502386 298.75292526895333 298.10674470004244
          297.6434522454278 297.31942090224624 297.11357481457594 297.00483812649475 296.987672987741 297.0565415480531
          297.21942744065063 297.4843142987532 297.8750413988396 298.41544801738826 299.15215678893213 300.1317903480036
          301.4389074737495 303.1580669453163 305.4341398877598 308.4119974261357 312.353736195204 317.5214528297244
          398.5342451595363 372.29130788231254 352.4370626080675 337.56764623075594 326.2791956443331 317.80689668329387
          311.38593518213315 306.5727832715356 302.92391308218583 300.18991463538475 298.1213779524335 296.5765004269005
          295.4134794523545 294.5530521354134 293.9159555826953 293.4591761004017 293.13969999473437 292.936747694472
          292.8295396283933 292.81261579741926 292.8805162024709 293.04111224273146 293.30227531738393 293.68750956999867
          294.22031914414555 294.9466712526574 295.9125331083664 297.2012747618257 298.89626626358813 301.1403421382461
          304.07633691039246 307.96266265633886 313.05773145239715 392.5361161950019 366.6881475411995 347.1327180527866
          332.4870934277315 321.36853936400286 313.0237525111743 306.6994295188194 301.9587178219208 298.36476485546063
          295.671914378933 293.6345101518319 292.11288376404957 290.9673668054783 290.1198893267865 289.4923813786423
          289.042476643692 288.7278088045818 288.5279110324696 288.4223164985133 288.40564737920346 288.4725258510304
          288.63070484489566 288.8879372916998 289.26737358653105 289.792164124477 290.5075842900669 291.4589094678296
          292.72825494960904 294.3977360272489 296.6080374981615 299.49984415975916 303.32767886433203 308.34606446417047
          386.25768637343987 360.82314377275037 341.58049414485976 327.1691193699654 316.22840132826457 308.01708540070837
          301.79391696824814 297.12903071636026 293.5925613305211 290.9427817257918 288.9379648172335 287.44067612500623
          286.31348116927 285.47955869266787 284.86208743784255 284.41937871668114 284.1097438410703 283.91304333943066
          283.80913774018296 283.7927352355652 283.8585440178155 284.0141930133663 284.26731114865004 284.6406785391167
          285.1570753002164 285.8610526580816 286.7971618388453 288.04620473903316 289.6889832551712 291.8639319977688
          294.70948557733584 298.4760958733265 303.41421476519537 379.7341171560164 354.72914270380056 335.81148533160547
          321.6435066215117 310.8875681555999 302.8149344852759 296.6968701619453 292.11076993666376 288.63402856048685
          286.02900151673487 284.0580442887283 282.5860435500274 281.4778859741925 280.6580477506421 280.05100506879495
          279.61577332760726 279.31136792603513 279.1179895313277 279.0158388107338 278.9997133306982 279.06441065766546
          279.21743087188224 279.46627405359476 279.833335581159 280.3410108329307 281.0330986021003 281.9533976818584
          283.18134529228934 284.79637865347763 286.9345943311623 289.7320888910825 293.43508428995216 298.28980248448477
          373 348.4384579912672 329.8562819869719 315.9395549400478 305.3743598034288 297.4448843547066
          291.43531637147294 286.9305449886921 283.515459341328 280.9566292456896 279.0206245180859 277.57472790061166
          276.4862221353617 275.68092273357354 275.08464520648477 274.6571317645036 274.35812461803823 274.16817555113306
          274.06783634783244 274.0519968333365 274.1155468328454 274.2658534219143 274.5102836760984 274.8708358192845
          275.3695080753595 276.04932251982825 276.95330122819564 278.1594726992267 279.7458654316862 281.84616248624
          284.5940469235542 288.23137425701276 293
        </DataArray>
        <DataArray type="Float64" Name="von Mises stress" format="ascii" RangeMin="23024996.89279072" RangeMax="319462562.4385744">
          272678353.3401055 206803703.93350157 151646734.0580604 108158487.95519309 77290009.86631066 56147131.99635107
          41835686.55025232 33281318.22850873 29409671.73161464 28504592.526858956 28849926.08153057 29765228.64769674
          30570056.47742472 31198793.18175175 31585822.371715106 31754088.22690513 31726534.926912196 31529335.703370597
          31188663.78791465 30716149.763278738 30123424.21219725 29409091.478251442 28571755.905022576 27610307.377920084
          26523635.78235341 25362181.91057198 24176386.55482523 23289556.090451904 23024996.89279072 24483068.510802746
          28764130.49344903 36036633.127703056 46469026.70053832 277601270.1655634 210537324.22529206 154384554.08954915
          110111174.08884925 78685398.55370697 57160808.576084204 42590985.24794283 33882176.93075164 29940631.985979352
          29019212.54143482 29370780.724926878 30302608.102477558 31121966.240108915 31762054.114931107 32156070.704054296
          32327374.419750243 32299323.674290728 32098564.22908531 31751741.845543575 31270697.084163822 30667270.505444366
          29940041.255879115 29087588.48196199 28108782.02717545 27002491.735001955 25820069.052417554 24612865.42639829
          23710024.18409171 23440688.65264536 24925084.19889873 29283436.189691294 36687236.102164686 47307975.41346055
          282370267.78502774 214154209.68707043 157036773.83918506 112002807.82371187 80037159.22299124 58142791.692224406
          43322668.886612676 34464249.27182206 30454991.313518576 29517742.52058946 29875350.401921947 30823185.92861244
          31656620.071757343 32307704.21312637 32708489.734489236 32882736.32946337 32854203.691666186 32649995.338238608
          32297214.78632153 31807906.009044535 31194112.979537215 30454390.43501457 29587293.112691615 28591671.44074376
          27466375.8473464 26263639.961777296 25035697.41331422 24117345.983566653 23843383.454144068 25353279.88809647
          29786505.348473843 37317497.41728555 48120693.67654093 286960058.4164468 217635181.6500786 159589329.81138763
          113823358.69865237 81338124.11015119 59087874.3408186 44026857.68558909 35024448.79148888 30950022.305544186
          29997538.991846878 30360959.614488833 31324201.744244337 32171182.951887697 32832850.14762933 33240150.241679646
          33417229.12986005 33388232.707991946 33180705.04763529 32822190.220350046 32324927.96816039 31701158.033090517
          30949411.66031509 30068220.095008776 29056415.07961798 27912828.3565891 26690542.587299835 25442640.43312785
          24509361.649909664 24230945.99348176 25765385.0556116 30270670.428066663 37924075.09046784 48902872.02243604
          291344937.5834655 220960745.42088082 162027926.7759488 115562630.97515965 82581007.34500359 59990763.720119275
          44699607.93514532 35559638.17154463 31422952.61078013 30455914.922495145 30824888.776332997 31802849.68048623
          32662773.14314737 33334550.912171293 33748074.73541286 33927859.46887976 33898419.968579695 33687721.19191468
          33323728.096286695 32818867.452500902 32185566.031362463 31422332.63480902 30527676.064778253 29500410.212213684
          28339348.96805885 27098386.12070807 25831415.458555654 24883875.754423656 24601205.781134125 26159091.764452133
          30733219.930142753 38503572.06893196 49650129.971545786 295499067.9414531 224111305.5372234 164338195.61057165
          117210376.2132637 83758485.39706536 60846139.670122035 45336955.54057927 36066663.87686341 31870995.54740088
          30890169.390189946 31264404.24322886 32256309.364534117 33128494.012122165 33809850.29808611 34229270.33451907
          34411618.521540865 34381759.259271294 34168056.24235975 33798873.16545563 33286813.985987514 32644482.661383998
          31870366.731394053 30962953.735766653 29921040.653355908 28743424.46301594 27484767.395608723 26199731.68199621
          25238681.52018703 24951981.108189784 26532080.147674628 31171428.340311695 39052573.74012206 50358064.40112676
          299396793.4194149 227067404.01700002 166505868.00476897 118756417.8739326 84863286.11570163 61648719.355296366
          45934964.21793705 36542394.49669443 32291383.984639328 31297620.422392827 31676791.55057606 32681780.211806547
          33565469.24870183 34255812.83798333 34680765.15637246 34865518.57323108 34835265.45792109 34618743.63112855
          34244690.913539514 33725877.51273765 33075073.636306614 32290746.874170434 31371364.816253133 30315708.573182307
          29122559.255585566 27847300.10631168 26545314.368209407 25571587.65305588 25281105.572628204 26882046.61453055
          31582589.266367078 39567689.44830286 51022303.08050296 303012978.6609656 229809977.79638603 168516965.23685506
          120190785.96045049 85888284.94525003 62393327.160076335 46489777.57375199 36983762.17519131 32681406.95330857
          31675640.479846243 32059391.326546796 33076518.478393737 33970880.92037057 34669562.64271454 35099647.63566286
          35286632.5479695 35256014.0283884 35036876.99979694 34658306.38507248 34133226.633384645 33474562.19390307
          32680762.14774067 31750275.57601034 30681868.867305685 29474308.410220295 28183646.379500926 26865934.949894316
          25880447.333306428 25586456.741643205 27206734.327868883 31964051.24494766 40045597.35436918 51638562.51762306
          306323367.2207032 232320630.39211068 170357997.38109922 121503859.09867993 86826606.45586385 63074968.44591833
          46997674.062110715 37387806.331019826 33038448.279224444 32021693.90078457 32409637.189760223 33437876.36099638
          34342009.62933806 35048324.38441171 35483108.01584378 35672135.72090103 35641182.6968502 35419651.6166416
          35036945.15322554 34506128.95417486 33840268.66706245 33037796.429356623 32097144.378525708 31017065.426073592
          29796312.48350413 28491550.09035006 27159442.786144134 26163188.809157718 25865986.397662196 27503965.36554114
          32313255.526678115 40483091.77435998 52202709.00187356 309304950.5438621 234581911.74153695 172016168.5109961
          122686510.89326489 87671728.9293689 63688905.52725337 47455123.59486358 37751718.69219085 33360026.379226454
          32333375.472407643 32725094.78817168 33763342.27445033 34676275.87917539 35389465.5139314 35828481.090302914
          36019348.687162526 35988094.383382805 35764407.041375116 35377975.52355079 34841992.651315965 34169651.24607672
          33359368.184589095 32409560.34360915 31318968.496166736 30086333.41529171 28768871.182005946 27423797.87733132
          26417846.911602926 26117751.695155863 27771673.8501933 32627774.99891842 40877131.94308009 52710821.48442721
          311936338.52496797 236577599.24038243 173479582.7808555 123730256.91037005 88417589.39290896 64230733.97276611
          47858844.39423544 38072888.52369209 33643834.227511175 32608449.167370975 33003501.004949793 34050581.30152794
          34971281.61838572 35690538.658877425 36133289.126357354 36325780.51455383 36294260.317195185 36068669.972396955
          35678950.918274656 35138408.21314347 34460346.91531854 33643170.433257185 32685282.175416708 31585412.202050954
          30342290.57341376 29013620.131918162 27657103.71997719 26642594.70409416 26339946.450772375 28007939.220827803
          32905353.27507643 41224890.986402735 53159254.7276912 314198121.5101599 238292972.2911101 174737445.7489247
          124627398.26674853 89058686.2277265 64696457.14538911 48205858.53326686 38348946.81131409 33887778.39948516
          32844885.986002866 33242802.259090014 34297474.70863989 35224850.8245458 35949323.04241802 36395283.79786681
          36589170.89952593 36557422.156029135 36330196.10438954 35937651.28162026 35393189.21813959 34710211.44436587
          33887109.79221583 32922276.093606237 31814431.200732406 30562295.965789642 29223991.62203232 27857639.40271479
          26835774.401180048 26530931.71077106 28211018.73596875 33143942.88125402 41523803.76277686 53544700.99668728
          316073213.06628 239715072.264493 175780255.0041228 125371157.58982046 89590176.32623716 65082556.781895556
          48493544.525318466 38577808.09794 34090016.0411943 33040899.78796317 33441190.77112842 34502157.36208648
          35435067.93223381 36163863.70154373 36612485.88998957 36807530.08344316 36775591.86777633 36547009.76203963
          36152122.285283625 35604410.946433574 34917357.25441477 34089343.44381583 33118751.749225397 32004295.389059093
          30744687.581732526 29398396.420096494 28023889.99700177 26995926.644442175 26689264.694411516 28379378.24993343
          33341741.414031547 41771612.16290468 53864248.47275169 317547162.7601112 240832939.71658596 176599974.11452436
          125955803.08237371 90007963.74858135 65386057.39716958 48719685.31216072 38757708.65920928 34248988.60396973
          33194979.988729592 33597137.6557764 34663051.87063046 35600312.89881208 36332507.27406716 36783221.530141614
          36979175.27656377 36947088.12286195 36717440.06622879 36320711.103856884 35770445.61322558 35080187.971814215
          34248312.87005811 33273194.998392563 32153541.57456217 30888059.81631153 29535490.4717625 28154574.289036922
          27121817.217154812 26813725.205136195 28511720.296500355 33497224.534766577 41966406.44603944 54115434.556423545
          318608428.62331754 241637821.03067902 177190184.15554798 126376756.5965264 90308776.95221646 65604582.38740465
          48882510.06687755 38887239.75871741 34363451.2310065 33305920.041817863 33709421.749224536 34778898.327409156
          35719291.7505544 36453933.17300817 36906153.749118425 37102762.38730427 37070567.99598481 36840152.43873466
          36442097.57912845 35889993.060946226 35197428.527968034 34362773.23872584 33384396.45175164 32261001.064216997
          30991289.9732935 29634200.242983337 28248668.937288743 27212460.315672558 26903338.63759764 28607008.552855823
          33609174.71123895 42106661.248426355 54296292.30009737 319248599.9377666 242123337.38121572 177546207.60915396
          126630682.0019025 90490231.93978278 65736399.90374138 48980728.37472492 38965374.839762785 34432496.78588441
          33372840.72782487 33777153.18031925 34848778.62892151 35791061.559185654 36527179.076817766 36980308.28752396
          37177311.96613945 37145052.88749943 36914174.36249119 36515319.702002004 35962105.85511644 35268149.770919055
          34431817.431336954 33451474.818297237 32325822.222737905 31053559.93559696 29693743.44152818 28305428.225185342
          27267137.577559467 26957394.7896416 28664487.84286743 33676704.71867268 42191265.02615937 54405388.37442952
          319462562.4385744 242285610.02637836 177665200.239366 126715550.71366662 90550879.08540949 65780456.86914208
          49013555.57941174 38991489.68896517 34455573.67054907 33395207.424064014 33799790.849410556 34872134.5084026
          35815048.96285401 36551659.83126449 37005092.73213372 37202228.44390458 37169947.74501998 36938914.48371436
          36539792.50822215 35986207.89379658 35291786.715690866 34454893.86070239 33473894.21562851 32347487.200333778
          31074372.234682743 29713644.382701408 28324398.70841578 27285412.19160333 26975461.812041562 28683698.970201902
          33699275.06655581 42219541.88807785 54441851.22174258 319248599.93776387 242123337.38121393 177546207.60915273
          126630682.00190173 90490231.93978241 65736399.90374133 48980728.37472503 38965374.83976291 34432496.78588441
          33372840.727824736 33777153.18031911 34848778.62892132 35791061.55918519 36527179.076816976 36980308.28752295
          37177311.96613843 37145052.887498766 36914174.36249085 36515319.70200157 35962105.855115816 35268149.770918466
          34431817.43133655 33451474.818297084 32325822.222737923 31053559.935596928 29693743.441528045 28305428.225185227
          27267137.57755941 26957394.789641544 28664487.84286749 33676704.7186731 42191265.02615976 54405388.37442886
          318608428.6233145 241637821.030677 177190184.1555465 126376756.59652536 90308776.95221585 65604582.38740441
          48882510.06687749 38887239.758717395 34363451.2310064 33305920.04181766 33709421.74922433 34778898.32740885
          35719291.7505537 36453933.173007056 36906153.749117106 37102762.38730304 37070567.995984055 36840152.43873433
          36442097.57912806 35889993.06094564 35197428.52796746 34362773.238725446 33384396.45175148 32261001.06421698
          30991289.97329335 29634200.24298302 28248668.937288474 27212460.315672386 26903338.637597434 28607008.552855704
          33609174.711239256 42106661.248426706 54296292.300096616 317547162.76011163 240832939.71658617 176599974.11452428
          125955803.08237335 90007963.74858086 65386057.39716902 48719685.31216016 38757708.65920878 34248988.603969425
          33194979.988729455 33597137.65577626 34663051.87063018 35600312.89881155 36332507.274066485 36783221.530141115
          36979175.27656358 36947088.12286202 36717440.066229045 36320711.10385725 35770445.61322598 35080187.971814565
          34248312.87005835 33273194.998392675 32153541.57456211 30888059.816311225 29535490.471762028 28154574.289036535
          27121817.217154525 26813725.205135763 28511720.296499774 33497224.5347661 41966406.44603918 54115434.55642345
          316073213.0662828 239715072.2644949 175780255.0041238 125371157.58982068 89590176.3262367 65082556.781894684
          48493544.52531744 38577808.09793911 34090016.04119382 33040899.78796307 33441190.771128375 34502157.36208634
          35435067.932233594 36163863.70154363 36612485.889989965 36807530.083444044 36775591.8677773 36547009.76204056
          36152122.285284646 35604410.94643468 34917357.254415765 34089343.4438166 33118751.749225866 32004295.389059246
          30744687.581732422 29398396.420096267 28023889.997001622 26995926.64444207 26689264.69441118 28379378.249932792
          33341741.414030705 41771612.16290406 53864248.47275199 314198121.51016086 238292972.29111072 174737445.748925
          124627398.26674843 89058686.2277259 64696457.14538814 48205858.533265874 38348946.81131332 33887778.39948469
          32844885.986002665 33242802.259089977 34297474.70863992 35224850.82454577 35949323.04241804 36395283.79786722
          36589170.899526834 36557422.15603035 36330196.104390785 35937651.28162113 35393189.21814009 34710211.44436634
          33887109.79221645 32922276.093606953 31814431.200733155 30562295.96579035 29223991.622032978 27857639.402715437
          26835774.40118064 26530931.71077147 28211018.73596896 33143942.88125412 41523803.76277681 53544700.99668687
          311936338.5249668 236577599.2403818 173479582.78085515 123730256.91036977 88417589.39290859 64230733.97276569
          47858844.394235045 38072888.52369173 33643834.22751077 32608449.16737062 33003501.0049497 34050581.30152807
          34971281.618385784 35690538.65887741 36133289.12635749 36325780.514554314 36294260.31719622 36068669.972398214
          35678950.918275304 35138408.213143446 34460346.91531855 33643170.43325759 32685282.175417554 31585412.202052157
          30342290.573415123 29013620.131919555 27657103.719978537 26642594.704095423 26339946.45077354 28007939.220828895
          32905353.275077466 41224890.986403205 53159254.72769004 309304950.5438632 234581911.74153796 172016168.51099685
          122686510.89326553 87671728.92936966 63688905.52725422 47455123.59486406 37751718.69219081 33360026.379226062
          32333375.472407162 32725094.788171455 33763342.274450414 34676275.87917555 35389465.51393156 35828481.09030318
          36019348.687163025 35988094.38338373 35764407.04137634 35377975.52355191 34841992.65131684 34169651.246077515
          33359368.18458995 32409560.343610123 31318968.496167872 30086333.415292993 28768871.18200736 27423797.87733281
          26417846.91160442 26117751.69515729 27771673.85019451 32627774.99891916 40877131.94308012 52710821.48442626
          306323367.22070694 232320630.39211366 170357997.38110137 121503859.0986815 86826606.45586535 63074968.445919745
          46997674.062111445 37387806.33101972 33038448.27922385 32021693.900783814 32409637.189759593 33437876.360996038
          34342009.629338 35048324.38441196 35483108.01584435 35672135.72090189 35641182.69685131 35419651.61664298
          35036945.153227285 34506128.95417687 33840268.667064406 33037796.429358363 32097144.378527213 31017065.42607497
          29796312.483505633 28491550.09035181 27159442.786146086 26163188.80915974 25865986.39766404 27503965.365542427
          32313255.52667835 40483091.7743593 52202709.0018728 303012978.6609686 229809977.79638892 168516965.23685738
          120190785.96045199 85888284.94525087 62393327.16007662 46489777.57375179 36983762.175190665 32681406.953307535
          31675640.47984493 32059391.326545388 33076518.478392486 33970880.920369826 34669562.64271448 35099647.63566352
          35286632.54797075 35256014.02838998 35036876.99979871 34658306.385074414 34133226.63338679 33474562.193905525
          32680762.147743348 31750275.576012988 30681868.86730831 29474308.410223193 28183646.379504185 26865934.949897815
          25880447.333309893 25586456.741646234 27206734.32787099 31964051.24494833 40045597.354368426 51638562.51762149
          299396793.4194178 227067404.0170025 166505868.00477096 118756417.87393393 84863286.11570196 61648719.35529579
          45934964.217936054 36542394.49669323 32291383.9846378 31297620.42239098 31676791.550573975 32681780.211804517
          33565469.24870038 34255812.83798274 34680765.15637277 34865518.57323217 34835265.45792263 34618743.63113033
          34244690.913541384 33725877.512739725 33075073.636309277 32290746.87417374 31371364.816256825 30315708.573186327
          29122559.255590055 27847300.10631659 26545314.368214518 25571587.653060842 25281105.57263254 26882046.614533797
          31582589.266368765 39567689.448302686 51022303.080500774 295499067.9414607 224111305.53722727 164338195.61057416
          117210376.21326582 83758485.39706676 60846139.67012257 45336955.54057877 36066663.876862004 31870995.547398977
          30890169.3901878 31264404.2432266 32256309.364531957 33128494.012120493 33809850.29808509 34229270.33451867
          34411618.521541 34381759.25927182 34168056.242360786 33798873.16545749 33286813.985990178 32644482.661387093
          31870366.73139751 30962953.735770687 29921040.653360598 28743424.463021178 27484767.395614345 26199731.68200202
          25238681.520192705 24951981.10819491 26532080.147678755 31171428.340314347 39052573.7401228 50358064.401125245
          291344937.5834765 220960745.42088643 162027926.77595243 115562630.97516286 82581007.3450062 59990763.720120855
          44699607.93514527 35559638.17154303 31422952.610777743 30455914.92249254 30824888.77633057 31802849.680484224
          32662773.143145904 33334550.912170324 33748074.73541222 33927859.468879394 33898419.96857968 33687721.19191533
          33323728.09628862 32818867.45250394 32185566.031365715 31422332.63481237 30527676.064782318 29500410.21221863
          28339348.968064386 27098386.120713957 25831415.458561726 24883875.75442965 24601205.781139694 26159091.764456794
          30733219.930145856 38503572.06893314 49650129.97154488 286960058.4164549 217635181.6500848 159589329.81139266
          113823358.69865629 81338124.11015359 59087874.340819314 44026857.685588256 35024448.79148672 30950022.305541035
          29997538.991843354 30360959.614485793 31324201.744242232 32171182.951886516 32832850.147628926 33240150.241679735
          33417229.129860546 33388232.707992934 33180705.047636814 32822190.2203521 32324927.968162913 31701158.03309337
          30949411.66031843 30068220.095013034 29056415.079623207 27912828.356594995 26690542.587306138 25442640.433134362
          24509361.64991609 24230945.993487727 25765385.05561648 30270670.428069524 37924075.09046839 48902872.02243454
          282370267.78503513 214154209.6870783 157036773.83919162 112002807.8237163 80037159.2229934 58142791.6922245
          43322668.886611216 34464249.27181936 30454991.313514784 29517742.520585157 29875350.40191813 30823185.928609665
          31656620.071755704 32307704.213125795 32708489.734489482 32882736.329464328 32854203.691667885 32649995.338240862
          32297214.786323965 31807906.009047132 31194112.979540274 30454390.435018323 29587293.112696223 28591671.440749194
          27466375.84735247 26263639.96178382 25035697.41332101 24117345.98357338 23843383.45415025 25353279.888101336
          29786505.348476343 37317497.417285584 48120693.6765394 277601270.1655762 210537324.22530255 154384554.0895567
          110111174.08885397 78685398.55370985 57160808.57608549 42590985.247942016 33882176.93074886 29940631.985975463
          29019212.541430496 29370780.724922605 30302608.102473762 31121966.240105916 31762054.11492903 32156070.704053078
          32327374.41974989 32299323.67429128 32098564.229086872 31751741.845546305 31270697.08416752 30667270.50544847
          29940041.255883466 29087588.48196682 28108782.02718083 27002491.735007808 25820069.052423816 24612865.426404916
          23710024.18409837 23440688.652651437 24925084.19890346 29283436.18969378 36687236.10216511 47307975.41346018
          272678353.34010524 206803703.93350533 151646734.05806488 108158487.95519647 77290009.86631274 56147131.996351734
          41835686.550251424 33281318.228506383 29409671.731611203 28504592.52685502 28849926.08152698 29765228.647693813
          30570056.477422256 31198793.181749646 31585822.371713318 31754088.226903852 31726534.926911816 31529335.70337098
          31188663.787915103 30716149.763279334 30123424.212198813 29409091.478254333 28571755.905026674 27610307.377925217
          26523635.782359328 25362181.910578456 24176386.55483204 23289556.090458624 23024996.892796744 24483068.510807417
          28764130.493451685 36036633.12770295 46469026.700534634
        </DataArray>
      </PointData>
      <CellData>
      </CellData>
      <Points>
        <DataArray type="Float64" Name="Points" NumberOfComponents="3" format="ascii" RangeMin="0.029999999999999933" RangeMax="0.04000000000000004">
          0.03 0 0 0.0303125 0 0
          0.030625 0 0 0.0309375 0 0
          0.03125 0 0 0.0315625 0 0
          0.031875 0 0 0.0321875 0 0
          0.0325 0 0 0.0328125 0 0
          0.033125 0 0 0.0334375 0 0
          0.03375 0 0 0.0340625 0 0
          0.034375 0 0 0.0346875 0 0
          0.035 0 0 0.0353125 0 0
          0.035625 0 0 0.0359375 0 0
          0.03625 0 0 0.0365625 0 0
          0.036875 0 0 0.0371875 0 0
          0.0375 0 0 0.0378125 0 0
          0.038125 0 0 0.0384375 0 0
          0.03875 0 0 0.0390625 0 0
          0.039375 0 0 0.0396875 0 0
          0.04 0 0 0.029970174201170083 0.0013374073244597354 0
          0.03028236351576558 0.001351338650756192 0 0.03059455283036111 0.001365269977052648 0
          0.03090674214495664 0.0013792013033491037 0 0.031218931459552162 0.001393132629645559 0
          0.03153112077414768 0.0014070639559420146 0 0.031843310088743186 0.0014209952822384702 0
          0.03215549940333871 0.0014349266085349254 0 0.03246768871793424 0.001448857934831381 0
          0.032779878032529776 0.0014627892611278365 0 0.033092067347125304 0.001476720587424292 0
          0.03340425666172081 0.0014906519137207479 0 0.033716445976316324 0.0015045832400172028 0
          0.03402863529091185 0.0015185145663136582 0 0.034340824605507386 0.0015324458926101138 0
          0.03465301392010292 0.0015463772189065691 0 0.03496520323469845 0.0015603085452030245 0
          0.03527739254929396 0.0015742398714994805 0 0.03558958186388947 0.001588171197795937 0
          0.03590177117848498 0.0016021025240923938 0 0.036213960493080524 0.0016160338503888498 0
          0.03652614980767605 0.0016299651766853054 0 0.036838339122271566 0.001643896502981761 0
          0.03715052843686707 0.0016578278292782168 0 0.03746271775146261 0.0016717591555746722 0
          0.03777490706605814 0.0016856904818711277 0 0.03808709638065366 0.0016996218081675833 0
          0.03839928569524918 0.0017135531344640387 0 0.0387114750098447 0.001727484460760495 0
          0.03902366432444021 0.0017414157870569503 0 0.03933585363903572 0.0017553471133534059 0
          0.03964804295363124 0.0017692784396498619 0 0.03996023226822677 0.0017832097659463183 0
          0.029878647258386324 0.002695633136931134 0 0.03018988316732784 0.0027237126487741695 0
          0.03050111907626937 0.002751792160617203 0 0.0308123549852109 0.0027798716724602352 0
          0.031123590894152425 0.0028079511843032675 0 0.03143482680309395 0.0028360306961463 0
          0.03174606271203547 0.0028641102079893332 0 0.032057298620977 0.0028921897198323655 0
          0.03236853452991853 0.002920269231675398 0 0.03267977043886006 0.0029483487435184304 0
          0.032991006347801596 0.0029764282553614626 0 0.03330224225674313 0.0030045077672044957 0
          0.03361347816568465 0.003032587279047528 0 0.03392471407462617 0.003060666790890561 0
          0.034235949983567694 0.0030887463027335933 0 0.03454718589250924 0.0031168258145766255 0
          0.03485842180145077 0.0031449053264196577 0 0.03516965771039228 0.003172984838262691 0
          0.035480893619333806 0.0032010643501057257 0 0.03579212952827533 0.00322914386194876 0
          0.03610336543721687 0.003257223373791794 0 0.03641460134615839 0.0032853028856348267 0
          0.0367258372550999 0.0033133823974778594 0 0.0370370731640414 0.003341461909320892 0
          0.03734830907298293 0.003369541421163924 0 0.037659544981924455 0.003397620933006957 0
          0.03797078089086599 0.0034257004448499883 0 0.03828201679980751 0.003453779956693021 0
          0.03859325270874903 0.003481859468536054 0 0.038904488617690546 0.0035099389803790867 0
          0.03921572452663207 0.0035380184922221194 0 0.0395269604355736 0.0035660980040651525 0
          0.03983819634451513 0.0035941775159081877 0 0.02972251814004727 0.004070861753309568 0
          0.030032127704006102 0.004113266563239878 0 0.03034173726796492 0.004155671373170187 0
          0.030651346831923745 0.004198076183100494 0 0.030960956395882575 0.004240480993030801 0
          0.031270565959841415 0.00428288580296111 0 0.031580175523800234 0.004325290612891419 0
          0.031889785087759054 0.004367695422821727 0 0.03219939465171789 0.004410100232752036 0
          0.03250900421567673 0.004452505042682344 0 0.03281861377963557 0.004494909852612651 0
          0.03312822334359441 0.004537314662542959 0 0.03343783290755323 0.0045797194724732666 0
          0.03374744247151205 0.004622124282403576 0 0.03405705203547088 0.004664529092333885 0
          0.034366661599429714 0.004706933902264191 0 0.03467627116338853 0.004749338712194498 0
          0.03498588072734736 0.004791743522124807 0 0.03529549029130619 0.004834148332055116 0
          0.03560509985526502 0.004876553141985426 0 0.035914709419223846 0.004918957951915735 0
          0.036224318983182666 0.004961362761846045 0 0.036533928547141485 0.005003767571776352 0
          0.0368435381111003 0.00504617238170666 0 0.0371531476750591 0.005088577191636966 0
          0.03746275723901793 0.005130982001567274 0 0.03777236680297676 0.005173386811497582 0
          0.038081976366935597 0.005215791621427889 0 0.03839158593089442 0.005258196431358199 0
          0.03870119549485324 0.005300601241288508 0 0.03901080505881207 0.005343006051218815 0
          0.03932041462277091 0.0053854108611491236 0 0.03963002418672975 0.005427815671079435 0
          0.0294991610524972 0.005458891572364333 0 0.029806443980127384 0.00551575502624313 0
          0.030113726907757554 0.0055726184801219245 0 0.030421009835387727 0.005629481934000719 0
          0.030728292763017914 0.005686345387879513 0 0.031035575690648104 0.0057432088417583085 0
          0.03134285861827827 0.005800072295637107 0 0.03165014154590844 0.005856935749515903 0
          0.03195742447353864 0.005913799203394698 0 0.03226470740116884 0.005970662657273493 0
          0.03257199032879904 0.006027526111152287 0 0.032879273256429226 0.006084389565031083 0
          0.0331865561840594 0.006141253018909879 0 0.033493839111689565 0.006198116472788677 0
          0.03380112203931976 0.006254979926667473 0 0.03410840496694994 0.0063118433805462665 0
          0.03441568789458011 0.0063687068344250595 0 0.03472297082221027 0.006425570288303855 0
          0.03503025374984046 0.00648243374218265 0 0.035337536677470645 0.006539297196061445 0
          0.035644819605100825 0.006596160649940244 0 0.03595210253273099 0.006653024103819041 0
          0.03625938546036118 0.006709887557697836 0 0.03656666838799136 0.006766751011576631 0
          0.03687395131562152 0.006823614465455424 0 0.0371812342432517 0.0068804779193342176 0
          0.03748851717088189 0.006937341373213014 0 0.03779580009851208 0.006994204827091808 0
          0.03810308302614225 0.007051068280970605 0 0.03841036595377242 0.007107931734849403 0
          0.03871764888140261 0.007164795188728198 0 0.039024931809032805 0.007221658642606992 0
          0.039332214736662985 0.007278522096485786 0 0.029206281031282335 0.0068551548721933735 0
          0.02951051312535818 0.006926562735445388 0 0.02981474521943403 0.006997970598697402 0
          0.030118977313509886 0.007069378461949416 0 0.030423209407585753 0.007140786325201431 0
          0.030727441501661623 0.0072121941884534455 0 0.03103167359573748 0.007283602051705462 0
          0.031335905689813336 0.007355009914957479 0 0.03164013778388921 0.007426417778209495 0
          0.031944369877965076 0.0074978256414615085 0 0.032248601972040956 0.007569233504713523 0
          0.03255283406611682 0.0076406413679655375 0 0.03285706616019267 0.007712049231217552 0
          0.03316129825426853 0.007783457094469569 0 0.033465530348344395 0.007854864957721584 0
          0.033769762442420255 0.007926272820973598 0 0.03407399453649609 0.007997680684225612 0
          0.034378226630571926 0.008069088547477626 0 0.03468245872464778 0.00814049641072964 0
          0.03498669081872365 0.008211904273981654 0 0.0352909229127995 0.00828331213723367 0
          0.03559515500687535 0.008354720000485686 0 0.035899387100951224 0.008426127863737701 0
          0.036203619195027084 0.008497535726989714 0 0.03650785128910294 0.008568943590241728 0
          0.0368120833831788 0.008640351453493742 0 0.03711631547725466 0.008711759316745756 0
          0.03742054757133053 0.008783167179997772 0 0.03772477966540639 0.008854575043249787 0
          0.03802901175948224 0.008925982906501803 0 0.038333243853558095 0.008997390769753817 0
          0.03863747594763396 0.009068798633005828 0 0.038941708041709794 0.009140206496257835 0
          0.028841968745610926 0.008254746445361071 0 0.029142405920044356 0.008340733387500247 0
          0.0294428430944778 0.008426720329639427 0 0.029743280268911258 0.00851270727177861 0
          0.030043717443344713 0.008598694213917788 0 0.030344154617778167 0.008684681156056966 0
          0.030644591792211625 0.008770668098196148 0 0.030945028966645076 0.008856655040335327 0
          0.03124546614107854 0.008942641982474507 0 0.03154590331551199 0.009028628924613685 0
          0.031846340489945446 0.009114615866752863 0 0.0321467776643789 0.009200602808892042 0
          0.03244721483881235 0.009286589751031218 0 0.0327476520132458 0.009372576693170397 0
          0.03304808918767926 0.009458563635309577 0 0.0333485263621127 0.009544550577448756 0
          0.03364896353654612 0.009630537519587933 0 0.033949400710979544 0.009716524461727112 0
          0.03424983788541298 0.009802511403866287 0 0.03455027505984644 0.009888498346005466 0
          0.034850712234279886 0.009974485288144645 0 0.035151149408713334 0.010060472230283824 0
          0.035451586583146795 0.010146459172423003 0 0.03575202375758024 0.01023244611456218 0
          0.03605246093201369 0.010318433056701357 0 0.03635289810644714 0.010404419998840536 0
          0.0366533352808806 0.010490406940979713 0 0.036953772455314046 0.01057639388311889 0
          0.0372542096297475 0.01066238082525807 0 0.03755464680418094 0.010748367767397248 0
          0.037855083978614396 0.010834354709536425 0 0.038155521153047836 0.010920341651675599 0
          0.038455958327481235 0.011006328593814764 0 0.028404752965250298 0.009652461291458359 0
          0.02870063580863831 0.009753007763244387 0 0.028996518652026352 0.00985355423503042 0
          0.029292401495414396 0.009954100706816453 0 0.02958828433880243 0.010054647178602483 0
          0.02988416718219046 0.010155193650388509 0 0.03018005002557849 0.010255740122174535 0
          0.030475932868966518 0.010356286593960557 0 0.030771815712354548 0.010456833065746582 0
          0.031067698555742575 0.010557379537532609 0 0.031363581399130605 0.010657926009318633 0
          0.031659464242518635 0.010758472481104658 0 0.03195534708590666 0.010859018952890681 0
          0.03225122992929469 0.010959565424676708 0 0.03254711277268271 0.011060111896462733 0
          0.032842995616070736 0.011160658368248757 0 0.03313887845945874 0.011261204840034783 0
          0.03343476130284675 0.011361751311820809 0 0.033730644146234764 0.01146229778360683 0
          0.0340265269896228 0.011562844255392855 0 0.034322409833010825 0.011663390727178882 0
          0.03461829267639885 0.011763937198964906 0 0.03491417551978688 0.011864483670750929 0
          0.0352100583631749 0.011965030142536952 0 0.03550594120656293 0.012065576614322976 0
          0.03580182404995096 0.012166123086109001 0 0.036097706893338986 0.012266669557895026 0
          0.03639358973672702 0.012367216029681051 0 0.03668947258011505 0.012467762501467076 0
          0.03698535542350307 0.012568308973253102 0 0.037281238266891094 0.012668855445039125 0
          0.03757712111027911 0.012769401916825147 0 0.037873003953667106 0.012869948388611161 0
          0.02789364903187285 0.011042841286856165 0 0.028184207875954867 0.01115787088359426 0
          0.02847476672003691 0.011272900480332363 0 0.028765325564118947 0.011387930077070462 0
          0.02905588440820097 0.011502959673808552 0 0.02934644325228298 0.011617989270546638 0
          0.029637002096364985 0.011733018867284718 0 0.02992756094044699 0.011848048464022796 0
          0.030218119784528995 0.011963078060760881 0 0.030508678628611008 0.012078107657498966 0
          0.030799237472693024 0.012193137254237053 0 0.031089796316775033 0.012308166850975138 0
          0.03138035516085705 0.012423196447713225 0 0.03167091400493906 0.01253822604445131 0
          0.031961472849021066 0.012653255641189395 0 0.032252031693103075 0.012768285237927482 0
          0.03254259053718508 0.012883314834665567 0 0.03283314938126708 0.012998344431403654 0
          0.03312370822534909 0.013113374028141741 0 0.033414267069431104 0.013228403624879825 0
          0.03370482591351311 0.013343433221617912 0 0.03399538475759512 0.013458462818355995 0
          0.03428594360167713 0.013573492415094075 0 0.03457650244575913 0.013688522011832153 0
          0.034867061289841135 0.013803551608570237 0 0.03515762013392315 0.013918581205308322 0
          0.03544817897800516 0.014033610802046409 0 0.035738737822087176 0.014148640398784494 0
          0.036029296666169185 0.01426366999552258 0 0.036319855510251194 0.014378699592260664 0
          0.0366104143543332 0.014493729188998753 0 0.03690097319841522 0.014608758785736838 0
          0.03719153204249721 0.014723788382474927 0 0.02730820163270254 0.012420230416045359 0
          0.027592662066376554 0.012549607816212524 0 0.027877122500050575 0.012678985216379684 0
          0.028161582933724578 0.012808362616546835 0 0.028446043367398574 0.012937740016713982 0
          0.02873050380107256 0.013067117416881118 0 0.02901496423474653 0.013196494817048238 0
          0.029299424668420494 0.01332587221721536 0 0.029583885102094473 0.013455249617382497 0
          0.029868345535768462 0.013584627017549639 0 0.03015280596944245 0.013714004417716781 0
          0.030437266403116444 0.013843381817883922 0 0.03072172683679043 0.013972759218051066 0
          0.03100618727046442 0.014102136618218209 0 0.031290647704138405 0.01423151401838535 0
          0.0315751081378124 0.01436089141855249 0 0.03185956857148638 0.014490268818719634 0
          0.03214402900516037 0.014619646218886779 0 0.032428489438834356 0.014749023619053921 0
          0.03271294987250835 0.014878401019221063 0 0.032997410306182334 0.015007778419388204 0
          0.03328187073985632 0.01513715581955534 0 0.033566331173530285 0.015266533219722465 0
          0.03385079160720425 0.015395910619889586 0 0.034135252040878236 0.01552528802005672 0
          0.03441971247455223 0.01565466542022386 0 0.034704172908226215 0.015784042820391003 0
          0.03498863334190021 0.01591342022055815 0 0.03527309377557419 0.016042797620725288 0
          0.03555755420924818 0.01617217502089243 0 0.035842014642922165 0.01630155242105957 0
          0.03612647507659615 0.01643092982122672 0 0.036410935510270165 0.016560307221393882 0
          0.026648520204892535 0.013778837791680067 0 0.02692610895702687 0.013922367352010105 0
          0.027203697709161187 0.01406589691234012 0 0.027481286461295492 0.014209426472670122 0
          0.0277588752134298 0.014352956033000134 0 0.028036463965564095 0.014496485593330133 0
          0.028314052717698365 0.014640015153660106 0 0.02859164146983264 0.01478354471399008 0
          0.028869230221966934 0.014927074274320079 0 0.029146818974101235 0.015070603834650087 0
          0.02942440772623554 0.01521413339498009 0 0.02970199647836984 0.015357662955310094 0
          0.02997958523050414 0.0155011925156401 0 0.030257173982638445 0.01564472207597011 0
          0.030534762734772746 0.01578825163630011 0 0.030812351486907044 0.015931781196630114 0
          0.031089940239041353 0.01607531075696012 0 0.031367528991175654 0.016218840317290133 0
          0.03164511774330995 0.01636236987762014 0 0.03192270649544426 0.01650589943795015 0
          0.03220029524757856 0.016649428998280154 0 0.03247788399971286 0.016792958558610148 0
          0.03275547275184712 0.016936488118940125 0 0.033033061503981394 0.017080017679270105 0
          0.03331065025611569 0.0172235472396001 0 0.03358823900825 0.0173670767999301 0
          0.033865827760384305 0.017510606360260108 0 0.03414341651251861 0.017654135920590116 0
          0.03442100526465291 0.01779766548092012 0 0.03469859401678721 0.01794119504125012 0
          0.03497618276892151 0.018084724601580126 0 0.03525377152105583 0.018228254161910144 0
          0.03553136027319014 0.01837178372224017 0 0.025915305412422908 0.015112807329574507 0
          0.026185256510469018 0.015270232405924273 0 0.026455207608515097 0.01542765748227401 0
          0.026725158706561166 0.015585082558623743 0 0.02699510980460725 0.015742507634973486 0
          0.027265060902653324 0.015899932711323225 0 0.027535012000699372 0.016057357787672935 0
          0.027804963098745417 0.016214782864022646 0 0.028074914196791496 0.016372207940372387 0
          0.028344865294837575 0.01652963301672213 0 0.028614816392883647 0.01668705809307186 0
          0.028884767490929716 0.01684448316942159 0 0.0291547185889758 0.017001908245771337 0
          0.029424669687021877 0.017159333322121082 0 0.029694620785067946 0.017316758398470813 0
          0.029964571883114015 0.01747418347482054 0 0.030234522981160097 0.017631608551170286 0
          0.03050447407920618 0.01778903362752004 0 0.03077442517725225 0.01794645870386979 0
          0.031044376275298317 0.018103883780219536 0 0.0313143273733444 0.018261308856569267 0
          0.031584278471390476 0.01841873393291899 0 0.031854229569436524 0.018576159009268716 0
          0.03212418066748257 0.01873358408561844 0 0.03239413176552864 0.018891009161968165 0
          0.03266408286357474 0.0190484342383179 0 0.032934033961620826 0.019205859314667638 0
          0.0332039850596669 0.019363284391017383 0 0.03347393615771298 0.019520709467367114 0
          0.03374388725575904 0.019678134543716842 0 0.03401383835380513 0.019835559620066587 0
          0.034283789451851204 0.019992984696416333 0 0.03455374054989727 0.020150409772766067 0
          0.02510986533655952 0.016416292601554253 0 0.025371426433815365 0.01658729564948713 0
          0.02563298753107119 0.01675829869741998 0 0.02589454862832701 0.016929301745352832 0
          0.02615610972558285 0.0171003047932857 0 0.02641767082283869 0.017271307841218567 0
          0.026679231920094505 0.017442310889151408 0 0.02694079301735031 0.01761331393708425 0
          0.027202354114606156 0.017784316985017118 0 0.02746391521186199 0.017955320032949987 0
          0.02772547630911781 0.018126323080882828 0 0.02798703740637362 0.01829732612881567 0
          0.028248598503629457 0.018468329176748535 0 0.0285101596008853 0.018639332224681407 0
          0.02877172069814112 0.018810335272614255 0 0.029033281795396944 0.0189813383205471 0
          0.02929484289265278 0.01915234136847997 0 0.029556403989908622 0.01932334441641285 0
          0.02981796508716444 0.019494347464345727 0 0.030079526184420266 0.0196653505122786 0
          0.030341087281676102 0.019836353560211448 0 0.030602648378931945 0.020007356608144296 0
          0.030864209476187756 0.020178359656077154 0 0.03112577057344357 0.02034936270401002 0
          0.03138733167069941 0.020520365751942868 0 0.03164889276795525 0.020691368799875712 0
          0.0319104538652111 0.020862371847808574 0 0.03217201496246694 0.021033374895741433 0
          0.03243357605972275 0.02120437794367428 0 0.03269513715697857 0.021375380991607133 0
          0.03295669825423441 0.02154638403954 0 0.03321825935149025 0.02171738708747286 0
          0.03347982044874604 0.02188839013540569 0 0.024234120303270358 0.017683535085684033 0
          0.024486559056429436 0.01786773857615992 0 0.024738997809588496 0.01805194206663579 0
          0.024991436562747563 0.018236145557111665 0 0.02524387531590664 0.018420349047587548 0
          0.025496314069065718 0.018604552538063434 0 0.025748752822224778 0.01878875602853931 0
          0.026001191575383838 0.018972959519015176 0 0.02625363032854291 0.019157163009491062 0
          0.026506069081701986 0.019341366499966945 0 0.02675850783486103 0.01952556999044279 0
          0.027010946588020064 0.01970977348091864 0 0.02726338534117914 0.019893976971394525 0
          0.027515824094338216 0.020078180461870408 0 0.027768262847497276 0.020262383952346277 0
          0.028020701600656343 0.020446587442822153 0 0.028273140353815417 0.02063079093329804 0
          0.028525579106974494 0.020814994423773926 0 0.028778017860133558 0.020999197914249826 0
          0.02903045661329262 0.021183401404725712 0 0.029282895366451695 0.02136760489520158 0
          0.029535334119610773 0.021551808385677457 0 0.029787772872769833 0.021736011876153337 0
          0.030040211625928893 0.021920215366629223 0 0.030292650379087974 0.022104418857105096 0
          0.03054508913224705 0.022288622347580965 0 0.03079752788540611 0.022472825838056824 0
          0.03104996663856517 0.022657029328532693 0 0.03130240539172423 0.022841232819008555 0
          0.031554844144883284 0.023025436309484427 0 0.03180728289804237 0.023209639799960314 0
          0.03205972165120143 0.023393843290436193 0 0.03231216040436048 0.023578046780912045 0
          0.023290595627245284 0.0189089437919769 0 0.023533205998362432 0.01910591195647667 0
          0.02377581636947957 0.01930288012097643 0 0.02401842674059671 0.01949984828547619 0
          0.02426103711171386 0.019696816449975958 0 0.024503647482831 0.01989378461447573 0
          0.024746257853948142 0.020090752778975488 0 0.024988868225065283 0.020287720943475248 0
          0.025231478596182425 0.020484689107975018 0 0.025474088967299566 0.020681657272474775 0
          0.025716699338416676 0.020878625436974503 0 0.025959309709533786 0.021075593601474242 0
          0.026201920080650924 0.021272561765973995 0 0.02644453045176807 0.02146952993047376 0
          0.026687140822885213 0.021666498094973525 0 0.02692975119400235 0.021863466259473285 0
          0.0271723615651195 0.022060434423973055 0 0.027414971936236644 0.02225740258847282 0
          0.02765758230735378 0.022454370752972592 0 0.027900192678470926 0.022651338917472362 0
          0.02814280304958807 0.02284830708197212 0 0.02838541342070522 0.023045275246471885 0
          0.028628023791822353 0.023242243410971645 0 0.028870634162939498 0.023439211575471415 0
          0.029113244534056646 0.023636179739971182 0 0.029355854905173777 0.02383314790447093 0
          0.0295984652762909 0.024030116068970663 0 0.029841075647408018 0.024227084233470406 0
          0.03008368601852515 0.024424052397970155 0 0.030326296389642286 0.02462102056246992 0
          0.030568906760759434 0.02481798872696969 0 0.030811517131876576 0.025014956891469448 0
          0.03105412750299371 0.025211925055969208 0 0.02228240196677268 0.020087174081765802 0
          0.022514510320593234 0.02029641547845087 0 0.02274661867441379 0.020505656875135933 0
          0.022978727028234336 0.020714898271820992 0 0.023210835382054887 0.020924139668506057 0
          0.02344294373587544 0.021133381065191123 0 0.023675052089695996 0.02134262246187619 0
          0.023907160443516543 0.02155186385856125 0 0.0241392687973371 0.021761105255246316 0
          0.02437137715115765 0.02197034665193137 0 0.024603485504978175 0.022179588048616413 0
          0.024835593858798705 0.022388829445301458 0 0.025067702212619253 0.022598070841986517 0
          0.025299810566439804 0.022807312238671575 0 0.025531918920260355 0.02301655363535664 0
          0.02576402727408091 0.023225795032041703 0 0.025996135627901464 0.023435036428726772 0
          0.026228243981722014 0.023644277825411834 0 0.02646035233554257 0.0238535192220969 0
          0.02669246068936312 0.024062760618781966 0 0.02692456904318367 0.024272002015467024 0
          0.02715667739700422 0.024481243412152087 0 0.027388785750824773 0.024690484808837156 0
          0.027620894104645327 0.024899726205522218 0 0.027853002458465878 0.025108967602207283 0
          0.02808511081228643 0.02531820899889234 0 0.02831721916610696 0.025527450395577383 0
          0.02854932751992749 0.02573669179226243 0 0.028781435873748033 0.025945933188947484 0
          0.029013544227568588 0.026155174585632546 0 0.029245652581389135 0.026364415982317608 0
          0.02947776093520969 0.02657365737900267 0 0.029709869289030237 0.026782898775687736 0
          0.021213203435596413 0.021213203435596413 0 0.021434174304717214 0.021434174304717214 0
          0.02165514517383801 0.02165514517383801 0 0.021876116042958804 0.021876116042958804 0
          0.022097086912079605 0.022097086912079605 0 0.022318057781200402 0.022318057781200402 0
          0.022539028650321202 0.022539028650321202 0 0.022759999519442006 0.022759999519442 0
          0.0229809703885628 0.0229809703885628 0 0.023201941257683593 0.023201941257683593 0
          0.023422912126804377 0.023422912126804377 0 0.02364388299592516 0.02364388299592516 0
          0.023864853865045953 0.023864853865045953 0 0.024085824734166754 0.024085824734166754 0
          0.024306795603287547 0.02430679560328755 0 0.02452776647240835 0.02452776647240835 0
          0.02474873734152915 0.02474873734152915 0 0.02496970821064995 0.02496970821064995 0
          0.025190679079770746 0.025190679079770743 0 0.025411649948891547 0.025411649948891547 0
          0.02563262081801234 0.02563262081801234 0 0.02585359168713314 0.02585359168713314 0
          0.026074562556253938 0.026074562556253938 0 0.02629553342537474 0.02629553342537474 0
          0.026516504294495535 0.026516504294495535 0 0.026737475163616332 0.026737475163616336 0
          0.026958446032737123 0.026958446032737123 0 0.027179416901857913 0.027179416901857913 0
          0.0274003877709787 0.027400387770978703 0 0.02762135864009949 0.027621358640099493 0
          0.02784232950922029 0.02784232950922029 0 0.028063300378341084 0.028063300378341084 0
          0.02828427124746188 0.02828427124746188 0 0.02008717408176581 0.022282401966772683 0
          0.020296415478450874 0.022514510320593237 0 0.020505656875135933 0.022746618674413792 0
          0.020714898271821 0.02297872702823434 0 0.02092413966850606 0.023210835382054894 0
          0.021133381065191126 0.023442943735875445 0 0.02134262246187619 0.023675052089696 0
          0.021551863858561254 0.023907160443516547 0 0.021761105255246316 0.0241392687973371 0
          0.02197034665193137 0.024371377151157645 0 0.022179588048616417 0.024603485504978175 0
          0.022388829445301458 0.024835593858798705 0 0.022598070841986513 0.025067702212619253 0
          0.022807312238671575 0.025299810566439807 0 0.023016553635356644 0.025531918920260358 0
          0.02322579503204171 0.025764027274080913 0 0.023435036428726776 0.02599613562790146 0
          0.023644277825411834 0.026228243981722014 0 0.023853519222096903 0.02646035233554257 0
          0.02406276061878197 0.02669246068936312 0 0.02427200201546703 0.026924569043183674 0
          0.02448124341215209 0.027156677397004222 0 0.02469048480883716 0.027388785750824776 0
          0.02489972620552222 0.02762089410464533 0 0.02510896760220729 0.02785300245846588 0
          0.025318208998892346 0.028085110812286436 0 0.025527450395577418 0.02831721916610699 0
          0.02573669179226247 0.028549327519927534 0 0.025945933188947515 0.028781435873748068 0
          0.02615517458563256 0.029013544227568595 0 0.02636441598231761 0.029245652581389135 0
          0.026573657379002674 0.02947776093520969 0 0.026782898775687736 0.029709869289030244 0
          0.0189089437919769 0.02329059562724528 0 0.019105911956476672 0.02353320599836243 0
          0.019302880120976428 0.023775816369479563 0 0.01949984828547619 0.024018426740596708 0
          0.019696816449975955 0.024261037111713856 0 0.019893784614475725 0.024503647482831 0
          0.020090752778975488 0.02474625785394814 0 0.020287720943475245 0.024988868225065283 0
          0.020484689107975015 0.025231478596182428 0 0.02068165727247477 0.025474088967299562 0
          0.020878625436974503 0.025716699338416672 0 0.02107559360147424 0.025959309709533786 0
          0.021272561765974 0.02620192008065092 0 0.02146952993047376 0.026444530451768068 0
          0.021666498094973532 0.02668714082288521 0 0.0218634662594733 0.026929751194002347 0
          0.022060434423973062 0.027172361565119495 0 0.022257402588472818 0.02741497193623664 0
          0.02245437075297259 0.027657582307353778 0 0.02265133891747236 0.027900192678470923 0
          0.022848307081972115 0.028142803049588067 0 0.023045275246471878 0.028385413420705215 0
          0.02324224341097165 0.028628023791822353 0 0.02343921157547141 0.028870634162939494 0
          0.023636179739971175 0.02911324453405664 0 0.023833147904470935 0.02935585490517379 0
          0.024030116068970705 0.029598465276290932 0 0.024227084233470465 0.029841075647408073 0
          0.024424052397970193 0.030083686018525183 0 0.024621020562469925 0.030326296389642297 0
          0.024817988726969685 0.03056890676075943 0 0.025014956891469445 0.030811517131876576 0
          0.025211925055969208 0.03105412750299371 0 0.017683535085684033 0.024234120303270358 0
          0.01786773857615992 0.024486559056429436 0 0.018051942066635792 0.0247389978095885 0
          0.018236145557111665 0.02499143656274756 0 0.018420349047587548 0.02524387531590664 0
          0.018604552538063434 0.02549631406906571 0 0.018788756028539303 0.025748752822224778 0
          0.018972959519015172 0.026001191575383838 0 0.019157163009491062 0.02625363032854291 0
          0.01934136649996694 0.026506069081701986 0 0.01952556999044279 0.02675850783486103 0
          0.019709773480918645 0.027010946588020068 0 0.01989397697139452 0.027263385341179138 0
          0.02007818046187041 0.027515824094338216 0 0.02026238395234631 0.027768262847497276 0
          0.020446587442822194 0.028020701600656343 0 0.020630790933298063 0.028273140353815417 0
          0.02081499442377394 0.028525579106974494 0 0.020999197914249822 0.028778017860133558 0
          0.021183401404725712 0.02903045661329262 0 0.02136760489520158 0.0292828953664517 0
          0.021551808385677454 0.029535334119610773 0 0.021736011876153337 0.02978777287276984 0
          0.021920215366629223 0.030040211625928893 0 0.022104418857105096 0.03029265037908797 0
          0.02228862234758097 0.030545089132247055 0 0.02247282583805685 0.03079752788540614 0
          0.022657029328532734 0.031049966638565213 0 0.022841232819008583 0.031302405391724256 0
          0.023025436309484434 0.0315548441448833 0 0.023209639799960314 0.03180728289804236 0
          0.023393843290436193 0.03205972165120143 0 0.02357804678091204 0.032312160404360475 0
          0.016416292601554253 0.02510986533655952 0 0.01658729564948713 0.025371426433815365 0
          0.01675829869741998 0.02563298753107119 0 0.016929301745352832 0.02589454862832701 0
          0.017100304793285698 0.026156109725582844 0 0.017271307841218567 0.02641767082283868 0
          0.017442310889151408 0.0266792319200945 0 0.01761331393708425 0.02694079301735031 0
          0.017784316985017118 0.027202354114606152 0 0.017955320032949983 0.02746391521186199 0
          0.018126323080882824 0.027725476309117807 0 0.01829732612881567 0.027987037406373625 0
          0.018468329176748535 0.028248598503629457 0 0.018639332224681414 0.0285101596008853 0
          0.018810335272614293 0.028771720698141125 0 0.018981338320547162 0.029033281795396937 0
          0.01915234136848001 0.02929484289265278 0 0.019323344416412862 0.029556403989908622 0
          0.019494347464345727 0.02981796508716444 0 0.0196653505122786 0.030079526184420263 0
          0.019836353560211448 0.030341087281676105 0 0.020007356608144296 0.030602648378931945 0
          0.020178359656077154 0.03086420947618776 0 0.02034936270401002 0.03112577057344357 0
          0.020520365751942868 0.03138733167069941 0 0.020691368799875716 0.03164889276795526 0
          0.020862371847808585 0.03191045386521111 0 0.02103337489574145 0.032172014962466945 0
          0.02120437794367429 0.03243357605972276 0 0.021375380991607136 0.032695137156978575 0
          0.02154638403954 0.03295669825423441 0 0.021717387087472863 0.03321825935149025 0
          0.021888390135405694 0.03347982044874604 0 0.015112807329574509 0.025915305412422915 0
          0.015270232405924277 0.026185256510469018 0 0.015427657482274015 0.0264552076085151 0
          0.015585082558623745 0.026725158706561156 0 0.01574250763497349 0.026995109804607217 0
          0.015899932711323228 0.027265060902653286 0 0.01605735778767294 0.02753501200069934 0
          0.01621478286402265 0.027804963098745413 0 0.016372207940372387 0.0280749141967915 0
          0.016529633016722133 0.02834486529483758 0 0.016687058093071864 0.02861481639288365 0
          0.016844483169421595 0.02888476749092972 0 0.017001908245771337 0.0291547185889758 0
          0.01715933332212109 0.029424669687021877 0 0.017316758398470845 0.02969462078506795 0
          0.017474183474820583 0.029964571883114015 0 0.017631608551170314 0.0302345229811601 0
          0.01778903362752005 0.030504474079206187 0 0.017946458703869794 0.030774425177252252 0
          0.01810388378021954 0.03104437627529832 0 0.018261308856569267 0.0313143273733444 0
          0.018418733932918995 0.03158427847139048 0 0.018576159009268716 0.031854229569436524 0
          0.01873358408561844 0.03212418066748258 0 0.01889100916196817 0.03239413176552865 0
          0.019048434238317896 0.03266408286357474 0 0.019205859314667645 0.032934033961620826 0
          0.019363284391017387 0.03320398505966691 0 0.01952070946736712 0.03347393615771298 0
          0.019678134543716842 0.033743887255759046 0 0.01983555962006659 0.034013838353805136 0
          0.019992984696416336 0.03428378945185121 0 0.020150409772766067 0.03455374054989727 0
          0.013778837791680064 0.026648520204892535 0 0.013922367352010103 0.026926108957026865 0
          0.01406589691234012 0.027203697709161177 0 0.014209426472670126 0.027481286461295468 0
          0.014352956033000134 0.027758875213429745 0 0.014496485593330131 0.028036463965564022 0
          0.014640015153660108 0.028314052717698313 0 0.014783544713990083 0.02859164146983261 0
          0.01492707427432008 0.028869230221966927 0 0.015070603834650087 0.02914681897410123 0
          0.01521413339498009 0.029424407726235537 0 0.015357662955310094 0.029701996478369838 0
          0.0155011925156401 0.02997958523050414 0 0.015644722075970112 0.030257173982638445 0
          0.01578825163630012 0.030534762734772746 0 0.015931781196630128 0.030812351486907044 0
          0.01607531075696013 0.031089940239041353 0 0.016218840317290133 0.031367528991175654 0
          0.01636236987762014 0.03164511774330995 0 0.01650589943795015 0.03192270649544426 0
          0.016649428998280154 0.03220029524757856 0 0.016792958558610148 0.03247788399971286 0
          0.01693648811894013 0.032755472751847134 0 0.017080017679270112 0.0330330615039814 0
          0.017223547239600102 0.0333106502561157 0 0.017367076799930107 0.03358823900825001 0
          0.017510606360260115 0.03386582776038431 0 0.017654135920590123 0.03414341651251862 0
          0.017797665480920124 0.034421005264652915 0 0.01794119504125012 0.03469859401678721 0
          0.018084724601580133 0.034976182768921525 0 0.018228254161910144 0.03525377152105583 0
          0.01837178372224017 0.03553136027319014 0 0.01242023041604536 0.02730820163270254 0
          0.012549607816212527 0.02759266206637655 0 0.012678985216379685 0.027877122500050543 0
          0.012808362616546836 0.028161582933724526 0 0.012937740016713982 0.028446043367398494 0
          0.013067117416881118 0.028730503801072466 0 0.013196494817048243 0.029014964234746452 0
          0.013325872217215365 0.02929942466842045 0 0.013455249617382498 0.029583885102094455 0
          0.013584627017549639 0.029868345535768455 0 0.013714004417716781 0.030152805969442455 0
          0.013843381817883922 0.030437266403116444 0 0.013972759218051066 0.03072172683679043 0
          0.014102136618218209 0.03100618727046442 0 0.01423151401838535 0.031290647704138405 0
          0.014360891418552494 0.0315751081378124 0 0.014490268818719636 0.03185956857148638 0
          0.014619646218886777 0.03214402900516037 0 0.01474902361905392 0.032428489438834356 0
          0.014878401019221063 0.03271294987250835 0 0.015007778419388208 0.03299741030618234 0
          0.015137155819555347 0.033281870739856334 0 0.01526653321972247 0.033566331173530306 0
          0.015395910619889592 0.033850791607204264 0 0.015525288020056729 0.03413525204087825 0
          0.015654665420223868 0.03441971247455224 0 0.01578404282039101 0.03470417290822623 0
          0.015913420220558156 0.03498863334190022 0 0.0160427976207253 0.03527309377557421 0
          0.016172175020892438 0.03555755420924819 0 0.01630155242105958 0.035842014642922186 0
          0.016430929821226726 0.03612647507659617 0 0.016560307221393882 0.03641093551027016 0
          0.011042841286856163 0.027893649031872848 0 0.01115787088359426 0.028184207875954857 0
          0.011272900480332361 0.02847476672003687 0 0.011387930077070462 0.028765325564118874 0
          0.01150295967380855 0.029055884408200887 0 0.01161798927054664 0.029346443252282892 0
          0.011733018867284721 0.029637002096364908 0 0.011848048464022803 0.029927560940446934 0
          0.011963078060760884 0.03021811978452897 0 0.012078107657498966 0.030508678628611004 0
          0.012193137254237051 0.030799237472693024 0 0.012308166850975138 0.031089796316775036 0
          0.012423196447713225 0.03138035516085705 0 0.01253822604445131 0.03167091400493906 0
          0.012653255641189394 0.031961472849021066 0 0.01276828523792748 0.032252031693103075 0
          0.012883314834665567 0.032542590537185084 0 0.012998344431403654 0.032833149381267086 0
          0.013113374028141741 0.03312370822534909 0 0.013228403624879828 0.03341426706943111 0
          0.013343433221617918 0.03370482591351313 0 0.013458462818356005 0.03399538475759515 0
          0.013573492415094085 0.03428594360167715 0 0.013688522011832164 0.034576502445759154 0
          0.013803551608570247 0.03486706128984117 0 0.013918581205308332 0.03515762013392318 0
          0.014033610802046417 0.03544817897800519 0 0.014148640398784504 0.035738737822087197 0
          0.014263669995522593 0.03602929666616921 0 0.014378699592260678 0.03631985551025122 0
          0.014493729188998761 0.03661041435433323 0 0.014608758785736847 0.03690097319841523 0
          0.014723788382474927 0.03719153204249721 0 0.009652461291458359 0.028404752965250298 0
          0.009753007763244387 0.028700635808638304 0 0.00985355423503042 0.028996518652026324 0
          0.009954100706816453 0.02929240149541435 0 0.010054647178602483 0.029588284338802378 0
          0.010155193650388509 0.029884167182190412 0 0.010255740122174535 0.030180050025578446 0
          0.010356286593960562 0.030475932868966486 0 0.010456833065746586 0.030771815712354534 0
          0.010557379537532609 0.03106769855574257 0 0.010657926009318633 0.03136358139913061 0
          0.010758472481104658 0.031659464242518635 0 0.010859018952890683 0.03195534708590666 0
          0.010959565424676708 0.03225122992929469 0 0.011060111896462731 0.03254711277268271 0
          0.011160658368248757 0.032842995616070736 0 0.011261204840034783 0.03313887845945874 0
          0.011361751311820809 0.03343476130284675 0 0.011462297783606834 0.03373064414623477 0
          0.011562844255392859 0.0340265269896228 0 0.011663390727178886 0.03432240983301083 0
          0.011763937198964914 0.03461829267639887 0 0.011864483670750938 0.0349141755197869 0
          0.011965030142536961 0.03521005836317492 0 0.012065576614322985 0.03550594120656295 0
          0.01216612308610901 0.03580182404995098 0 0.012266669557895031 0.036097706893339 0
          0.01236721602968106 0.03639358973672704 0 0.012467762501467083 0.03668947258011507 0
          0.012568308973253109 0.03698535542350309 0 0.01266885544503913 0.037281238266891115 0
          0.012769401916825152 0.03757712111027912 0 0.012869948388611163 0.037873003953667106 0
          0.008254746445361071 0.028841968745610926 0 0.008340733387500248 0.029142405920044356 0
          0.008426720329639427 0.029442843094477786 0 0.00851270727177861 0.02974328026891124 0
          0.00859869421391779 0.030043717443344695 0 0.008684681156056969 0.030344154617778153 0
          0.008770668098196151 0.03064459179221161 0 0.00885665504033533 0.030945028966645072 0
          0.008942641982474507 0.031245466141078534 0 0.009028628924613685 0.03154590331551199 0
          0.009114615866752863 0.031846340489945446 0 0.00920060280889204 0.0321467776643789 0
          0.009286589751031218 0.032447214838812355 0 0.009372576693170398 0.0327476520132458 0
          0.009458563635309577 0.03304808918767926 0 0.009544550577448756 0.0333485263621127 0
          0.009630537519587933 0.03364896353654612 0 0.009716524461727112 0.033949400710979544 0
          0.009802511403866291 0.034249837885412984 0 0.00988849834600547 0.03455027505984644 0
          0.00997448528814465 0.034850712234279886 0 0.010060472230283828 0.03515114940871334 0
          0.010146459172423005 0.0354515865831468 0 0.010232446114562184 0.03575202375758025 0
          0.010318433056701357 0.03605246093201369 0 0.010404419998840534 0.036352898106447144 0
          0.010490406940979715 0.0366533352808806 0 0.010576393883118894 0.03695377245531405 0
          0.010662380825258071 0.0372542096297475 0 0.010748367767397252 0.037554646804180955 0
          0.010834354709536429 0.037855083978614396 0 0.010920341651675602 0.03815552115304784 0
          0.011006328593814764 0.038455958327481235 0 0.0068551548721933735 0.029206281031282335 0
          0.006926562735445388 0.029510513125358184 0 0.006997970598697402 0.02981474521943403 0
          0.007069378461949417 0.030118977313509886 0 0.007140786325201433 0.03042320940758575 0
          0.00721219418845345 0.03072744150166162 0 0.007283602051705466 0.031031673595737486 0
          0.007355009914957482 0.03133590568981335 0 0.007426417778209497 0.031640137783889216 0
          0.007497825641461509 0.03194436987796508 0 0.007569233504713523 0.03224860197204095 0
          0.0076406413679655375 0.032552834066116816 0 0.007712049231217552 0.03285706616019267 0
          0.00778345709446957 0.03316129825426853 0 0.007854864957721584 0.033465530348344395 0
          0.0079262728209736 0.033769762442420255 0 0.007997680684225612 0.03407399453649609 0
          0.008069088547477628 0.034378226630571926 0 0.008140496410729642 0.03468245872464778 0
          0.008211904273981658 0.03498669081872365 0 0.008283312137233675 0.03529092291279951 0
          0.00835472000048569 0.03559515500687538 0 0.008426127863737705 0.035899387100951245 0
          0.008497535726989719 0.036203619195027105 0 0.00856894359024173 0.03650785128910295 0
          0.008640351453493742 0.03681208338317879 0 0.00871175931674576 0.037116315477254656 0
          0.008783167179997777 0.03742054757133053 0 0.008854575043249793 0.03772477966540639 0
          0.008925982906501805 0.03802901175948225 0 0.008997390769753819 0.03833324385355811 0
          0.00906879863300583 0.03863747594763396 0 0.009140206496257835 0.0389417080417098 0
          0.005458891572364334 0.0294991610524972 0 0.005515755026243129 0.02980644398012738 0
          0.005572618480121924 0.030113726907757554 0 0.00562948193400072 0.030421009835387723 0
          0.0056863453878795165 0.030728292763017914 0 0.005743208841758315 0.031035575690648104 0
          0.005800072295637112 0.031342858618278284 0 0.005856935749515907 0.03165014154590847 0
          0.0059137992033947 0.03195742447353865 0 0.005970662657273495 0.032264707401168845 0
          0.006027526111152289 0.03257199032879904 0 0.006084389565031085 0.032879273256429226 0
          0.006141253018909881 0.0331865561840594 0 0.006198116472788679 0.033493839111689565 0
          0.0062549799266674744 0.03380112203931976 0 0.006311843380546268 0.03410840496694994 0
          0.006368706834425062 0.03441568789458011 0 0.006425570288303858 0.03472297082221027 0
          0.006482433742182652 0.03503025374984046 0 0.006539297196061448 0.035337536677470645 0
          0.006596160649940247 0.03564481960510082 0 0.006653024103819045 0.035952102532731 0
          0.0067098875576978405 0.03625938546036119 0 0.006766751011576633 0.03656666838799137 0
          0.0068236144654554255 0.03687395131562153 0 0.006880477919334219 0.0371812342432517 0
          0.0069373413732130166 0.03748851717088189 0 0.006994204827091814 0.03779580009851208 0
          0.007051068280970611 0.03810308302614226 0 0.0071079317348494075 0.03841036595377244 0
          0.0071647951887282004 0.03871764888140262 0 0.007221658642606993 0.0390249318090328 0
          0.007278522096485786 0.03933221473666298 0 0.004070861753309572 0.029722518140047265 0
          0.004113266563239879 0.030032127704006095 0 0.004155671373170186 0.030341737267964915 0
          0.004198076183100494 0.03065134683192374 0 0.004240480993030804 0.030960956395882575 0
          0.0042828858029611136 0.031270565959841415 0 0.0043252906128914215 0.031580175523800234 0
          0.00436769542282173 0.03188978508775906 0 0.004410100232752039 0.032199394651717894 0
          0.004452505042682347 0.032509004215676734 0 0.004494909852612655 0.03281861377963557 0
          0.004537314662542962 0.0331282233435944 0 0.004579719472473272 0.03343783290755322 0
          0.0046221242824035814 0.03374744247151204 0 0.00466452909233389 0.034057052035470874 0
          0.0047069339022641965 0.03436666159942971 0 0.0047493387121945035 0.03467627116338853 0
          0.004791743522124811 0.03498588072734735 0 0.0048341483320551186 0.03529549029130618 0
          0.0048765531419854265 0.03560509985526501 0 0.004918957951915737 0.03591470941922382 0
          0.004961362761846048 0.03622431898318264 0 0.0050037675717763555 0.03653392854714147 0
          0.005046172381706662 0.0368435381111003 0 0.005088577191636967 0.03715314767505912 0
          0.005130982001567275 0.03746275723901793 0 0.005173386811497584 0.03777236680297676 0
          0.005215791621427895 0.038081976366935597 0 0.005258196431358204 0.03839158593089443 0
          0.005300601241288514 0.03870119549485325 0 0.005343006051218822 0.039010805058812076 0
          0.005385410861149128 0.039320414622770916 0 0.005427815671079435 0.03963002418672975 0
          0.0026956331369311416 0.029878647258386324 0 0.0027237126487741725 0.03018988316732784 0
          0.0027517921606172043 0.03050111907626937 0 0.002779871672460237 0.0308123549852109 0
          0.002807951184303269 0.031123590894152425 0 0.0028360306961463027 0.03143482680309395 0
          0.0028641102079893354 0.03174606271203548 0 0.002892189719832368 0.032057298620977 0
          0.002920269231675403 0.03236853452991854 0 0.0029483487435184373 0.03267977043886007 0
          0.00297642825536147 0.032991006347801596 0 0.0030045077672045026 0.03330224225674312 0
          0.003032587279047536 0.03361347816568465 0 0.0030606667908905693 0.033924714074626175 0
          0.003088746302733602 0.034235949983567694 0 0.003116825814576634 0.03454718589250924 0
          0.0031449053264196664 0.03485842180145077 0 0.0031729848382626986 0.03516965771039229 0
          0.003201064350105731 0.035480893619333806 0 0.003229143861948764 0.035792129528275325 0
          0.003257223373791797 0.03610336543721684 0 0.0032853028856348297 0.03641460134615835 0
          0.003313382397477862 0.03672583725509987 0 0.0033414619093208946 0.037037073164041395 0
          0.0033695414211639273 0.03734830907298292 0 0.003397620933006959 0.037659544981924434 0
          0.0034257004448499918 0.03797078089086597 0 0.0034537799566930257 0.03828201679980751 0
          0.003481859468536061 0.03859325270874904 0 0.0035099389803790954 0.03890448861769055 0
          0.0035380184922221285 0.03921572452663208 0 0.00356609800406516 0.0395269604355736 0
          0.0035941775159081908 0.03983819634451514 0 0.0013374073244597417 0.02997017420117008 0
          0.0013513386507561966 0.03028236351576558 0 0.0013652699770526516 0.03059455283036111 0
          0.0013792013033491074 0.03090674214495664 0 0.001393132629645563 0.031218931459552162 0
          0.0014070639559420185 0.03153112077414768 0 0.001420995282238474 0.031843310088743186 0
          0.00143492660853493 0.032155499403338714 0 0.0014488579348313861 0.03246768871793424 0
          0.0014627892611278426 0.03277987803252978 0 0.0014767205874242984 0.033092067347125304 0
          0.0014906519137207544 0.03340425666172082 0 0.001504583240017211 0.03371644597631633 0
          0.0015185145663136669 0.03402863529091185 0 0.0015324458926101229 0.03434082460550738 0
          0.0015463772189065787 0.03465301392010292 0 0.0015603085452030342 0.03496520323469845 0
          0.0015742398714994898 0.035277392549293955 0 0.0015881711977959452 0.03558958186388946 0
          0.0016021025240924012 0.03590177117848498 0 0.0016160338503888568 0.03621396049308051 0
          0.0016299651766853126 0.036526149807676045 0 0.0016438965029817682 0.03683833912227156 0
          0.0016578278292782237 0.03715052843686707 0 0.0016717591555746793 0.03746271775146257 0
          0.0016856904818711347 0.0377749070660581 0 0.0016996218081675903 0.038087096380653634 0
          0.0017135531344640465 0.038399285695249176 0 0.0017274844607605032 0.0387114750098447 0
          0.0017414157870569598 0.03902366432444021 0 0.0017553471133534154 0.03933585363903572 0
          0.0017692784396498708 0.03964804295363124 0 0.0017832097659463255 0.03996023226822677 0
          4.9065389333868e-18 0.03 0 4.98320360422097e-18 0.0303125 0
          5.05986827505514e-18 0.030625 0 5.1365329458893084e-18 0.0309375 0
          5.2131976167234755e-18 0.03125 0 5.289862287557642e-18 0.0315625 0
          5.36652695839181e-18 0.031875 0 5.44319162922598e-18 0.0321875 0
          5.51985630006015e-18 0.0325 0 5.59652097089432e-18 0.0328125 0
          5.67318564172849e-18 0.033125 0 5.749850312562659e-18 0.0334375 0
          5.8265149833968254e-18 0.03375 0 5.903179654230992e-18 0.0340625 0
          5.97984432506516e-18 0.034375 0 6.05650899589933e-18 0.034687499999999996 0
          6.1331736667335e-18 0.035 0 6.2098383375676705e-18 0.0353125 0
          6.28650300840184e-18 0.035625 0 6.363167679236008e-18 0.0359375 0
          6.4398323500701754e-18 0.03625 0 6.516497020904342e-18 0.0365625 0
          6.59316169173851e-18 0.036875 0 6.66982636257268e-18 0.0371875 0
          6.7464910334068496e-18 0.0375 0 6.82315570424102e-18 0.0378125 0
          6.89982037507519e-18 0.038125 0 6.976485045909359e-18 0.0384375 0
          7.053149716743525e-18 0.03875 0 7.129814387577692e-18 0.0390625 0
          7.206479058411861e-18 0.039375 0 7.28314372924603e-18 0.0396875 0
          7.3598084000802e-18 0.04 0
          <InformationKey name="L2_NORM_RANGE" location="vtkDataArray" length="2">
            <Value index="0">
              0.03
            </Value>
            <Value index="1">
              0.04
            </Value>
          </InformationKey>
        </DataArray>
      </Points>
      <Cells>
        <DataArray type="Int64" Name="connectivity" format="ascii" RangeMin="0" RangeMax="1088">
          0 33 34 1 1 34
          35 2 2 35 36 3
          3 36 37 4 4 37
          38 5 5 38 39 6
          6 39 40 7 7 40
          41 8 8 41 42 9
          9 42 43 10 10 43
          44 11 11 44 45 12
          12 45 46 13 13 46
          47 14 14 47 48 15
          15 48 49 16 16 49
          50 17 17 50 51 18
          18 51 52 19 19 52
          53 20 20 53 54 21
          21 54 55 22 22 55
          56 23 23 56 57 24
          24 57 58 25 25 58
          59 26 26 59 60 27
          27 60 61 28 28 61
          62 29 29 62 63 30
          30 63 64 31 31 64
          65 32 33 66 67 34
          34 67 68 35 35 68
          69 36 36 69 70 37
          37 70 71 38 38 71
          72 39 39 72 73 40
          40 73 74 41 41 74
          75 42 42 75 76 43
          43 76 77 44 44 77
          78 45 45 78 79 46
          46 79 80 47 47 80
          81 48 48 81 82 49
          49 82 83 50 50 83
          84 51 51 84 85 52
          52 85 86 53 53 86
          87 54 54 87 88 55
          55 88 89 56 56 89
          90 57 57 90 91 58
          58 91 92 59 59 92
          93 60 60 93 94 61
          61 94 95 62 62 95
          96 63 63 96 97 64
          64 97 98 65 66 99
          100 67 67 100 101 68
          68 101 102 69 69 102
          103 70 70 103 104 71
          71 104 105 72 72 105
          106 73 73 106 107 74
          74 107 108 75 75 108
          109 76 76 109 110 77
          77 110 111 78 78 111
          112 79 79 112 113 80
          80 113 114 81 81 114
          115 82 82 115 116 83
          83 116 117 84 84 117
          118 85 85 118 119 86
          86 119 120 87 87 120
          121 88 88 121 122 89
          89 122 123 90 90 123
          124 91 91 124 125 92
          92 125 126 93 93 126
          127 94 94 127 128 95
          95 128 129 96 96 129
          130 97 97 130 131 98
          99 132 133 100 100 133
          134 101 101 134 135 102
          102 135 136 103 103 136
          137 104 104 137 138 105
          105 138 139 106 106 139
          140 107 107 140 141 108
          108 141 142 109 109 142
          143 110 110 143 144 111
          111 144 145 112 112 145
          146 113 113 146 147 114
          114 147 148 115 115 148
          149 116 116 149 150 117
          117 150 151 118 118 151
          152 119 119 152 153 120
          120 153 154 121 121 154
          155 122 122 155 156 123
          123 156 157 124 124 157
          158 125 125 158 159 126
          126 159 160 127 127 160
          161 128 128 161 162 129
          129 162 163 130 130 163
          164 131 132 165 166 133
          133 166 167 134 134 167
          168 135 135 168 169 136
          136 169 170 137 137 170
          171 138 138 171 172 139
          139 172 173 140 140 173
          174 141 141 174 175 142
          142 175 176 143 143 176
          177 144 144 177 178 145
          145 178 179 146 146 179
          180 147 147 180 181 148
          148 181 182 149 149 182
          183 150 150 183 184 151
          151 184 185 152 152 185
          186 153 153 186 187 154
          154 187 188 155 155 188
          189 156 156 189 190 157
          157 190 191 158 158 191
          192 159 159 192 193 160
          160 193 194 161 161 194
          195 162 162 195 196 163
          163 196 197 164 165 198
          199 166 166 199 200 167
          167 200 201 168 168 201
          202 169 169 202 203 170
          170 203 204 171 171 204
          205 172 172 205 206 173
          173 206 207 174 174 207
          208 175 175 208 209 176
          176 209 210 177 177 210
          211 178 178 211 212 179
          179 212 213 180 180 213
          214 181 181 214 215 182
          182 215 216 183 183 216
          217 184 184 217 218 185
          185 218 219 186 186 219
          220 187 187 220 221 188
          188 221 222 189 189 222
          223 190 190 223 224 191
          191 224 225 192 192 225
          226 193 193 226 227 194
          194 227 228 195 195 228
          229 196 196 229 230 197
          198 231 232 199 199 232
          233 200 200 233 234 201
          201 234 235 202 202 235
          236 203 203 236 237 204
          204 237 238 205 205 238
          239 206 206 239 240 207
          207 240 241 208 208 241
          242 209 209 242 243 210
          210 243 244 211 211 244
          245 212 212 245 246 213
          213 246 247 214 214 247
          248 215 215 248 249 216
          216 249 250 217 217 250
          251 218 218 251 252 219
          219 252 253 220 220 253
          254 221 221 254 255 222
          222 255 256 223 223 256
          257 224 224 257 258 225
          225 258 259 226 226 259
          260 227 227 260 261 228
          228 261 262 229 229 262
          263 230 231 264 265 232
          232 265 266 233 233 266
          267 234 234 267 268 235
          235 268 269 236 236 269
          270 237 237 270 271 238
          238 271 272 239 239 272
          273 240 240 273 274 241
          241 274 275 242 242 275
          276 243 243 276 277 244
          244 277 278 245 245 278
          279 246 246 279 280 247
          247 280 281 248 248 281
          282 249 249 282 283 250
          250 283 284 251 251 284
          285 252 252 285 286 253
          253 286 287 254 254 287
          288 255 255 288 289 256
          256 289 290 257 257 290
          291 258 258 291 292 259
          259 292 293 260 260 293
          294 261 261 294 295 262
          262 295 296 263 264 297
          298 265 265 298 299 266
          266 299 300 267 267 300
          301 268 268 301 302 269
          269 302 303 270 270 303
          304 271 271 304 305 272
          272 305 306 273 273 306
          307 274 274 307 308 275
          275 308 309 276 276 309
          310 277 277 310 311 278
          278 311 312 279 279 312
          313 280 280 313 314 281
          281 314 315 282 282 315
          316 283 283 316 317 284
          284 317 318 285 285 318
          319 286 286 319 320 287
          287 320 321 288 288 321
          322 289 289 322 323 290
          290 323 324 291 291 324
          325 292 292 325 326 293
          293 326 327 294 294 327
          328 295 295 328 329 296
          297 330 331 298 298 331
          332 299 299 332 333 300
          300 333 334 301 301 334
          335 302 302 335 336 303
          303 336 337 304 304 337
          338 305 305 338 339 306
          306 339 340 307 307 340
          341 308 308 341 342 309
          309 342 343 310 310 343
          344 311 311 344 345 312
          312 345 346 313 313 346
          347 314 314 347 348 315
          315 348 349 316 316 349
          350 317 317 350 351 318
          318 351 352 319 319 352
          353 320 320 353 354 321
          321 354 355 322 322 355
          356 323 323 356 357 324
          324 357 358 325 325 358
          359 326 326 359 360 327
          327 360 361 328 328 361
          362 329 330 363 364 331
          331 364 365 332 332 365
          366 333 333 366 367 334
          334 367 368 335 335 368
          369 336 336 369 370 337
          337 370 371 338 338 371
          372 339 339 372 373 340
          340 373 374 341 341 374
          375 342 342 375 376 343
          343 376 377 344 344 377
          378 345 345 378 379 346
          346 379 380 347 347 380
          381 348 348 381 382 349
          349 382 383 350 350 383
          384 351 351 384 385 352
          352 385 386 353 353 386
          387 354 354 387 388 355
          355 388 389 356 356 389
          390 357 357 390 391 358
          358 391 392 359 359 392
          393 360 360 393 394 361
          361 394 395 362 363 396
          397 364 364 397 398 365
          365 398 399 366 366 399
          400 367 367 400 401 368
          368 401 402 369 369 402
          403 370 370 403 404 371
          371 404 405 372 372 405
          406 373 373 406 407 374
          374 407 408 375 375 408
          409 376 376 409 410 377
          377 410 411 378 378 411
          412 379 379 412 413 380
          380 413 414 381 381 414
          415 382 382 415 416 383
          383 416 417 384 384 417
          418 385 385 418 419 386
          386 419 420 387 387 420
          421 388 388 421 422 389
          389 422 423 390 390 423
          424 391 391 424 425 392
          392 425 426 393 393 426
          427 394 394 427 428 395
          396 429 430 397 397 430
          431 398 398 431 432 399
          399 432 433 400 400 433
          434 401 401 434 435 402
          402 435 436 403 403 436
          437 404 404 437 438 405
          405 438 439 406 406 439
          440 407 407 440 441 408
          408 441 442 409 409 442
          443 410 410 443 444 411
          411 444 445 412 412 445
          446 413 413 446 447 414
          414 447 448 415 415 448
          449 416 416 449 450 417
          417 450 451 418 418 451
          452 419 419 452 453 420
          420 453 454 421 421 454
          455 422 422 455 456 423
          423 456 457 424 424 457
          458 425 425 458 459 426
          426 459 460 427 427 460
          461 428 429 462 463 430
          430 463 464 431 431 464
          465 432 432 465 466 433
          433 466 467 434 434 467
          468 435 435 468 469 436
          436 469 470 437 437 470
          471 438 438 471 472 439
          439 472 473 440 440 473
          474 441 441 474 475 442
          442 475 476 443 443 476
          477 444 444 477 478 445
          445 478 479 446 446 479
          480 447 447 480 481 448
          448 481 482 449 449 482
          483 450 450 483 484 451
          451 484 485 452 452 485
          486 453 453 486 487 454
          454 487 488 455 455 488
          489 456 456 489 490 457
          457 490 491 458 458 491
          492 459 459 492 493 460
          460 493 494 461 462 495
          496 463 463 496 497 464
          464 497 498 465 465 498
          499 466 466 499 500 467
          467 500 501 468 468 501
          502 469 469 502 503 470
          470 503 504 471 471 504
          505 472 472 505 506 473
          473 506 507 474 474 507
          508 475 475 508 509 476
          476 509 510 477 477 510
          511 478 478 511 512 479
          479 512 513 480 480 513
          514 481 481 514 515 482
          482 515 516 483 483 516
          517 484 484 517 518 485
          485 518 519 486 486 519
          520 487 487 520 521 488
          488 521 522 489 489 522
          523 490 490 523 524 491
          491 524 525 492 492 525
          526 493 493 526 527 494
          495 528 529 496 496 529
          530 497 497 530 531 498
          498 531 532 499 499 532
          533 500 500 533 534 501
          501 534 535 502 502 535
          536 503 503 536 537 504
          504 537 538 505 505 538
          539 506 506 539 540 507
          507 540 541 508 508 541
          542 509 509 542 543 510
          510 543 544 511 511 544
          545 512 512 545 546 513
          513 546 547 514 514 547
          548 515 515 548 549 516
          516 549 550 517 517 550
          551 518 518 551 552 519
          519 552 553 520 520 553
          554 521 521 554 555 522
          522 555 556 523 523 556
          557 524 524 557 558 525
          525 558 559 526 526 559
          560 527 528 561 562 529
          529 562 563 530 530 563
          564 531 531 564 565 532
          532 565 566 533 533 566
          567 534 534 567 568 535
          535 568 569 536 536 569
          570 537 537 570 571 538
          538 571 572 539 539 572
          573 540 540 573 574 541
          541 574 575 542 542 575
          576 543 543 576 577 544
          544 577 578 545 545 578
          579 546 546 579 580 547
          547 580 581 548 548 581
          582 549 549 582 583 550
          550 583 584 551 551 584
          585 552 552 585 586 553
          553 586 587 554 554 587
          588 555 555 588 589 556
          556 589 590 557 557 590
          591 558 558 591 592 559
          559 592 593 560 561 594
          595 562 562 595 596 563
          563 596 597 564 564 597
          598 565 565 598 599 566
          566 599 600 567 567 600
          601 568 568 601 602 569
          569 602 603 570 570 603
          604 571 571 604 605 572
          572 605 606 573 573 606
          607 574 574 607 608 575
          575 608 609 576 576 609
          610 577 577 610 611 578
          578 611 612 579 579 612
          613 580 580 613 614 581
          581 614 615 582 582 615
          616 583 583 616 617 584
          584 617 618 585 585 618
          619 586 586 619 620 587
          587 620 621 588 588 621
          622 589 589 622 623 590
          590 623 624 591 591 624
          625 592 592 625 626 593
          594 627 628 595 595 628
          629 596 596 629 630 597
          597 630 631 598 598 631
          632 599 599 632 633 600
          600 633 634 601 601 634
          635 602 602 635 636 603
          603 636 637 604 604 637
          638 605 605 638 639 606
          606 639 640 607 607 640
          641 608 608 641 642 609
          609 642 643 610 610 643
          644 611 611 644 645 612
          612 645 646 613 613 646
          647 614 614 647 648 615
          615 648 649 616 616 649
          650 617 617 650 651 618
          618 651 652 619 619 652
          653 620 620 653 654 621
          621 654 655 622 622 655
          656 623 623 656 657 624
          624 657 658 625 625 658
          659 626 627 660 661 628
          628 661 662 629 629 662
          663 630 630 663 664 631
          631 664 665 632 632 665
          666 633 633 666 667 634
          634 667 668 635 635 668
          669 636 636 669 670 637
          637 670 671 638 638 671
          672 639 639 672 673 640
          640 673 674 641 641 674
          675 642 642 675 676 643
          643 676 677 644 644 677
          678 645 645 678 679 646
          646 679 680 647 647 680
          681 648 648 681 682 649
          649 682 683 650 650 683
          684 651 651 684 685 652
          652 685 686 653 653 686
          687 654 654 687 688 655
          655 688 689 656 656 689
          690 657 657 690 691 658
          658 691 692 659 660 693
          694 661 661 694 695 662
          662 695 696 663 663 696
          697 664 664 697 698 665
          665 698 699 666 666 699
          700 667 667 700 701 668
          668 701 702 669 669 702
          703 670 670 703 704 671
          671 704 705 672 672 705
          706 673 673 706 707 674
          674 707 708 675 675 708
          709 676 676 709 710 677
          677 710 711 678 678 711
          712 679 679 712 713 680
          680 713 714 681 681 714
          715 682 682 715 716 683
          683 716 717 684 684 717
          718 685 685 718 719 686
          686 719 720 687 687 720
          721 688 688 721 722 689
          689 722 723 690 690 723
          724 691 691 724 725 692
          693 726 727 694 694 727
          728 695 695 728 729 696
          696 729 730 697 697 730
          731 698 698 731 732 699
          699 732 733 700 700 733
          734 701 701 734 735 702
          702 735 736 703 703 736
          737 704 704 737 738 705
          705 738 739 706 706 739
          740 707 707 740 741 708
          708 741 742 709 709 742
          743 710 710 743 744 711
          711 744 745 712 712 745
          746 713 713 746 747 714
          714 747 748 715 715 748
          749 716 716 749 750 717
          717 750 751 718 718 751
          752 719 719 752 753 720
          720 753 754 721 721 754
          755 722 722 755 756 723
          723 756 757 724 724 757
          758 725 726 759 760 727
          727 760 761 728 728 761
          762 729 729 762 763 730
          730 763 764 731 731 764
          765 732 732 765 766 733
          733 766 767 734 734 767
          768 735 735 768 769 736
          736 769 770 737 737 770
          771 738 738 771 772 739
          739 772 773 740 740 773
          774 741 741 774 775 742
          742 775 776 743 743 776
          777 744 744 777 778 745
          745 778 779 746 746 779
          780 747 747 780 781 748
          748 781 782 749 749 782
          783 750 750 783 784 751
          751 784 785 752 752 785
          786 753 753 786 787 754
          754 787 788 755 755 788
          789 756 756 789 790 757
          757 790 791 758 759 792
          793 760 760 793 794 761
          761 794 795 762 762 795
          796 763 763 796 797 764
          764 797 798 765 765 798
          799 766 766 799 800 767
          767 800 801 768 768 801
          802 769 769 802 803 770
          770 803 804 771 771 804
          805 772 772 805 806 773
          773 806 807 774 774 807
          808 775 775 808 809 776
          776 809 810 777 777 810
          811 778 778 811 812 779
          779 812 813 780 780 813
          814 781 781 814 815 782
          782 815 816 783 783 816
          817 784 784 817 818 785
          785 818 819 786 786 819
          820 787 787 820 821 788
          788 821 822 789 789 822
          823 790 790 823 824 791
          792 825 826 793 793 826
          827 794 794 827 828 795
          795 828 829 796 796 829
          830 797 797 830 831 798
          798 831 832 799 799 832
          833 800 800 833 834 801
          801 834 835 802 802 835
          836 803 803 836 837 804
          804 837 838 805 805 838
          839 806 806 839 840 807
          807 840 841 808 808 841
          842 809 809 842 843 810
          810 843 844 811 811 844
          845 812 812 845 846 813
          813 846 847 814 814 847
          848 815 815 848 849 816
          816 849 850 817 817 850
          851 818 818 851 852 819
          819 852 853 820 820 853
          854 821 821 854 855 822
          822 855 856 823 823 856
          857 824 825 858 859 826
          826 859 860 827 827 860
          861 828 828 861 862 829
          829 862 863 830 830 863
          864 831 831 864 865 832
          832 865 866 833 833 866
          867 834 834 867 868 835
          835 868 869 836 836 869
          870 837 837 870 871 838
          838 871 872 839 839 872
          873 840 840 873 874 841
          841 874 875 842 842 875
          876 843 843 876 877 844
          844 877 878 845 845 878
          879 846 846 879 880 847
          847 880 881 848 848 881
          882 849 849 882 883 850
          850 883 884 851 851 884
          885 852 852 885 886 853
          853 886 887 854 854 887
          888 855 855 888 889 856
          856 889 890 857 858 891
          892 859 859 892 893 860
          860 893 894 861 861 894
          895 862 862 895 896 863
          863 896 897 864 864 897
          898 865 865 898 899 866
          866 899 900 867 867 900
          901 868 868 901 902 869
          869 902 903 870 870 903
          904 871 871 904 905 872
          872 905 906 873 873 906
          907 874 874 907 908 875
          875 908 909 876 876 909
          910 877 877 910 911 878
          878 911 912 879 879 912
          913 880 880 913 914 881
          881 914 915 882 882 915
          916 883 883 916 917 884
          884 917 918 885 885 918
          919 886 886 919 920 887
          887 920 921 888 888 921
          922 889 889 922 923 890
          891 924 925 892 892 925
          926 893 893 926 927 894
          894 927 928 895 895 928
          929 896 896 929 930 897
          897 930 931 898 898 931
          932 899 899 932 933 900
          900 933 934 901 901 934
          935 902 902 935 936 903
          903 936 937 904 904 937
          938 905 905 938 939 906
          906 939 940 907 907 940
          941 908 908 941 942 909
          909 942 943 910 910 943
          944 911 911 944 945 912
          912 945 946 913 913 946
          947 914 914 947 948 915
          915 948 949 916 916 949
          950 917 917 950 951 918
          918 951 952 919 919 952
          953 920 920 953 954 921
          921 954 955 922 922 955
          956 923 924 957 958 925
          925 958 959 926 926 959
          960 927 927 960 961 928
          928 961 962 929 929 962
          963 930 930 963 964 931
          931 964 965 932 932 965
          966 933 933 966 967 934
          934 967 968 935 935 968
          969 936 936 969 970 937
          937 970 971 938 938 971
          972 939 939 972 973 940
          940 973 974 941 941 974
          975 942 942 975 976 943
          943 976 977 944 944 977
          978 945 945 978 979 946
          946 979 980 947 947 980
          981 948 948 981 982 949
          949 982 983 950 950 983
          984 951 951 984 985 952
          952 985 986 953 953 986
          987 954 954 987 988 955
          955 988 989 956 957 990
          991 958 958 991 992 959
          959 992 993 960 960 993
          994 961 961 994 995 962
          962 995 996 963 963 996
          997 964 964 997 998 965
          965 998 999 966 966 999
          1000 967 967 1000 1001 968
          968 1001 1002 969 969 1002
          1003 970 970 1003 1004 971
          971 1004 1005 972 972 1005
          1006 973 973 1006 1007 974
          974 1007 1008 975 975 1008
          1009 976 976 1009 1010 977
          977 1010 1011 978 978 1011
          1012 979 979 1012 1013 980
          980 1013 1014 981 981 1014
          1015 982 982 1015 1016 983
          983 1016 1017 984 984 1017
          1018 985 985 1018 1019 986
          986 1019 1020 987 987 1020
          1021 988 988 1021 1022 989
          990 1023 1024 991 991 1024
          1025 992 992 1025 1026 993
          993 1026 1027 994 994 1027
          1028 995 995 1028 1029 996
          996 1029 1030 997 997 1030
          1031 998 998 1031 1032 999
          999 1032 1033 1000 1000 1033
          1034 1001 1001 1034 1035 1002
          1002 1035 1036 1003 1003 1036
          1037 1004 1004 1037 1038 1005
          1005 1038 1039 1006 1006 1039
          1040 1007 1007 1040 1041 1008
          1008 1041 1042 1009 1009 1042
          1043 1010 1010 1043 1044 1011
          1011 1044 1045 1012 1012 1045
          1046 1013 1013 1046 1047 1014
          1014 1047 1048 1015 1015 1048
          1049 1016 1016 1049 1050 1017
          1017 1050 1051 1018 1018 1051
          1052 1019 1019 1052 1053 1020
          1020 1053 1054 1021 1021 1054
          1055 1022 1023 1056 1057 1024
          1024 1057 1058 1025 1025 1058
          1059 1026 1026 1059 1060 1027
          1027 1060 1061 1028 1028 1061
          1062 1029 1029 1062 1063 1030
          1030 1063 1064 1031 1031 1064
          1065 1032 1032 1065 1066 1033
          1033 1066 1067 1034 1034 1067
          1068 1035 1035 1068 1069 1036
          1036 1069 1070 1037 1037 1070
          1071 1038 1038 1071 1072 1039
          1039 1072 1073 1040 1040 1073
          1074 1041 1041 1074 1075 1042
          1042 1075 1076 1043 1043 1076
          1077 1044 1044 1077 1078 1045
          1045 1078 1079 1046 1046 1079
          1080 1047 1047 1080 1081 1048
          1048 1081 1082 1049 1049 1082
          1083 1050 1050 1083 1084 1051
          1051 1084 1085 1052 1052 1085
          1086 1053 1053 1086 1087 1054
          1054 1087 1088 1055
        </DataArray>
        <DataArray type="Int64" Name="offsets" format="ascii" RangeMin="4" RangeMax="4096">
          4 8 12 16 20 24
          28 32 36 40 44 48
          52 56 60 64 68 72
          76 80 84 88 92 96
          100 104 108 112 116 120
          124 128 132 136 140 144
          148 152 156 160 164 168
          172 176 180 184 188 192
          196 200 204 208 212 216
          220 224 228 232 236 240
          244 248 252 256 260 264
          268 272 276 280 284 288
          292 296 300 304 308 312
          316 320 324 328 332 336
          340 344 348 352 356 360
          364 368 372 376 380 384
          388 392 396 400 404 408
          412 416 420 424 428 432
          436 440 444 448 452 456
          460 464 468 472 476 480
          484 488 492 496 500 504
          508 512 516 520 524 528
          532 536 540 544 548 552
          556 560 564 568 572 576
          580 584 588 592 596 600
          604 608 612 616 620 624
          628 632 636 640 644 648
          652 656 660 664 668 672
          676 680 684 688 692 696
          700 704 708 712 716 720
          724 728 732 736 740 744
          748 752 756 760 764 768
          772 776 780 784 788 792
          796 800 804 808 812 816
          820 824 828 832 836 840
          844 848 852 856 860 864
          868 872 876 880 884 888
          892 896 900 904 908 912
          916 920 924 928 932 936
          940 944 948 952 956 960
          964 968 972 976 980 984
          988 992 996 1000 1004 1008
          1012 1016 1020 1024 1028 1032
          1036 1040 1044 1048 1052 1056
          1060 1064 1068 1072 1076 1080
          1084 1088 1092 1096 1100 1104
          1108 1112 1116 1120 1124 1128
          1132 1136 1140 1144 1148 1152
          1156 1160 1164 1168 1172 1176
          1180 1184 1188 1192 1196 1200
          1204 1208 1212 1216 1220 1224
          1228 1232 1236 1240 1244 1248
          1252 1256 1260 1264 1268 1272
          1276 1280 1284 1288 1292 1296
          1300 1304 1308 1312 1316 1320
          1324 1328 1332 1336 1340 1344
          1348 1352 1356 1360 1364 1368
          1372 1376 1380 1384 1388 1392
          1396 1400 1404 1408 1412 1416
          1420 1424 1428 1432 1436 1440
          1444 1448 1452 1456 1460 1464
          1468 1472 1476 1480 1484 1488
          1492 1496 1500 1504 1508 1512
          1516 1520 1524 1528 1532 1536
          1540 1544 1548 1552 1556 1560
          1564 1568 1572 1576 1580 1584
          1588 1592 1596 1600 1604 1608
          1612 1616 1620 1624 1628 1632
          1636 1640 1644 1648 1652 1656
          1660 1664 1668 1672 1676 1680
          1684 1688 1692 1696 1700 1704
          1708 1712 1716 1720 1724 1728
          1732 1736 1740 1744 1748 1752
          1756 1760 1764 1768 1772 1776
          1780 1784 1788 1792 1796 1800
          1804 1808 1812 1816 1820 1824
          1828 1832 1836 1840 1844 1848
          1852 1856 1860 1864 1868 1872
          1876 1880 1884 1888 1892 1896
          1900 1904 1908 1912 1916 1920
          1924 1928 1932 1936 1940 1944
          1948 1952 1956 1960 1964 1968
          1972 1976 1980 1984 1988 1992
          1996 2000 2004 2008 2012 2016
          2020 2024 2028 2032 2036 2040
          2044 2048 2052 2056 2060 2064
          2068 2072 2076 2080 2084 2088
          2092 2096 2100 2104 2108 2112
          2116 2120 2124 2128 2132 2136
          2140 2144 2148 2152 2156 2160
          2164 2168 2172 2176 2180 2184
          2188 2192 2196 2200 2204 2208
          2212 2216 2220 2224 2228 2232
          2236 2240 2244 2248 2252 2256
          2260 2264 2268 2272 2276 2280
          2284 2288 2292 2296 2300 2304
          2308 2312 2316 2320 2324 2328
          2332 2336 2340 2344 2348 2352
          2356 2360 2364 2368 2372 2376
          2380 2384 2388 2392 2396 2400
          2404 2408 2412 2416 2420 2424
          2428 2432 2436 2440 2444 2448
          2452 2456 2460 2464 2468 2472
          2476 2480 2484 2488 2492 2496
          2500 2504 2508 2512 2516 2520
          2524 2528 2532 2536 2540 2544
          2548 2552 2556 2560 2564 2568
          2572 2576 2580 2584 2588 2592
          2596 2600 2604 2608 2612 2616
          2620 2624 2628 2632 2636 2640
          2644 2648 2652 2656 2660 2664
          2668 2672 2676 2680 2684 2688
          2692 2696 2700 2704 2708 2712
          2716 2720 2724 2728 2732 2736
          2740 2744 2748 2752 2756 2760
          2764 2768 2772 2776 2780 2784
          2788 2792 2796 2800 2804 2808
          2812 2816 2820 2824 2828 2832
          2836 2840 2844 2848 2852 2856
          2860 2864 2868 2872 2876 2880
          2884 2888 2892 2896 2900 2904
          2908 2912 2916 2920 2924 2928
          2932 2936 2940 2944 2948 2952
          2956 2960 2964 2968 2972 2976
          2980 2984 2988 2992 2996 3000
          3004 3008 3012 3016 3020 3024
          3028 3032 3036 3040 3044 3048
          3052 3056 3060 3064 3068 3072
          3076 3080 3084 3088 3092 3096
          3100 3104 3108 3112 3116 3120
          3124 3128 3132 3136 3140 3144
          3148 3152 3156 3160 3164 3168
          3172 3176 3180 3184 3188 3192
          3196 3200 3204 3208 3212 3216
          3220 3224 3228 3232 3236 3240
          3244 3248 3252 3256 3260 3264
          3268 3272 3276 3280 3284 3288
          3292 3296 3300 3304 3308 3312
          3316 3320 3324 3328 3332 3336
          3340 3344 3348 3352 3356 3360
          3364 3368 3372 3376 3380 3384
          3388 3392 3396 3400 3404 3408
          3412 3416 3420 3424 3428 3432
          3436 3440 3444 3448 3452 3456
          3460 3464 3468 3472 3476 3480
          3484 3488 3492 3496 3500 3504
          3508 3512 3516 3520 3524 3528
          3532 3536 3540 3544 3548 3552
          3556 3560 3564 3568 3572 3576
          3580 3584 3588 3592 3596 3600
          3604 3608 3612 3616 3620 3624
          3628 3632 3636 3640 3644 3648
          3652 3656 3660 3664 3668 3672
          3676 3680 3684 3688 3692 3696
          3700 3704 3708 3712 3716 3720
          3724 3728 3732 3736 3740 3744
          3748 3752 3756 3760 3764 3768
          3772 3776 3780 3784 3788 3792
          3796 3800 3804 3808 3812 3816
          3820 3824 3828 3832 3836 3840
          3844 3848 3852 3856 3860 3864
          3868 3872 3876 3880 3884 3888
          3892 3896 3900 3904 3908 3912
          3916 3920 3924 3928 3932 3936
          3940 3944 3948 3952 3956 3960
          3964 3968 3972 3976 3980 3984
          3988 3992 3996 4000 4004 4008
          4012 4016 4020 4024 4028 4032
          4036 4040 4044 4048 4052 4056
          4060 4064 4068 4072 4076 4080
          4084 4088 4092 4096
        </DataArray>
        <DataArray type="UInt8" Name="types" format="ascii" RangeMin="9" RangeMax="9">
          9 9 9 9 9 9
          9 9 9 9 9 9
          9 9 9 9 9 9
          9 9 9 9 9 9
          9 9 9 9 9 9
          9 9 9 9 9 9
          9 9 9 9 9 9
          9 9 9 9 9 9
          9 9 9 9 9 9
          9 9 9 9 9 9
          9 9 9 9 9 9
          9 9 9 9 9 9
          9 9 9 9 9 9
          9 9 9 9 9 9
          9 9 9 9 9 9
          9 9 9 9 9 9
          9 9 9 9 9 9
          9 9 9 9 9 9
          9 9 9 9 9 9
          9 9 9 9 9 9
          9 9 9 9 9 9
          9 9 9 9 9 9
          9 9 9 9 9 9
          9 9 9 9 9 9
          9 9 9 9 9 9
          9 9 9 9 9 9
          9 9 9 9 9 9
          9 9 9 9 9 9
          9 9 9 9 9 9
          9 9 9 9 9 9
          9 9 9 9 9 9
          9 9 9 9 9 9
          9 9 9 9 9 9
          9 9 9 9 9 9
          9 9 9 9 9 9
          9 9 9 9 9 9
          9 9 9 9 9 9
          9 9 9 9 9 9
          9 9 9 9 9 9
          9 9 9 9 9 9
          9 9 9 9 9 9
          9 9 9 9 9 9
          9 9 9 9 9 9
          9 9 9 9 9 9
          9 9 9 9 9 9
          9 9 9 9 9 9
          9 9 9 9 9 9
          9 9 9 9 9 9
          9 9 9 9 9 9
          9 9 9 9 9 9
          9 9 9 9 9 9
          9 9 9 9 9 9
          9 9 9 9 9 9
          9 9 9 9 9 9
          9 9 9 9 9 9
          9 9 9 9 9 9
          9 9 9 9 9 9
          9 9 9 9 9 9
          9 9 9 9 9 9
          9 9 9 9 9 9
          9 9 9 9 9 9
          9 9 9 9 9 9
          9 9 9 9 9 9
          9 9 9 9 9 9
          9 9 9 9 9 9
          9 9 9 9 9 9
          9 9 9 9 9 9
          9 9 9 9 9 9
          9 9 9 9 9 9
          9 9 9 9 9 9
          9 9 9 9 9 9
          9 9 9 9 9 9
          9 9 9 9 9 9
          9 9 9 9 9 9
          9 9 9 9 9 9
          9 9 9 9 9 9
          9 9 9 9 9 9
          9 9 9 9 9 9
          9 9 9 9 9 9
          9 9 9 9 9 9
          9 9 9 9 9 9
          9 9 9 9 9 9
          9 9 9 9 9 9
          9 9 9 9 9 9
          9 9 9 9 9 9
          9 9 9 9 9 9
          9 9 9 9 9 9
          9 9 9 9 9 9
          9 9 9 9 9 9
          9 9 9 9 9 9
          9 9 9 9 9 9
          9 9 9 9 9 9
          9 9 9 9 9 9
          9 9 9 9 9 9
          9 9 9 9 9 9
          9 9 9 9 9 9
          9 9 9 9 9 9
          9 9 9 9 9 9
          9 9 9 9 9 9
          9 9 9 9 9 9
          9 9 9 9 9 9
          9 9 9 9 9 9
          9 9 9 9 9 9
          9 9 9 9 9 9
          9 9 9 9 9 9
          9 9 9 9 9 9
          9 9 9 9 9 9
          9 9 9 9 9 9
          9 9 9 9 9 9
          9 9 9 9 9 9
          9 9 9 9 9 9
          9 9 9 9 9 9
          9 9 9 9 9 9
          9 9 9 9 9 9
          9 9 9 9 9 9
          9 9 9 9 9 9
          9 9 9 9 9 9
          9 9 9 9 9 9
          9 9 9 9 9 9
          9 9 9 9 9 9
          9 9 9 9 9 9
          9 9 9 9 9 9
          9 9 9 9 9 9
          9 9 9 9 9 9
          9 9 9 9 9 9
          9 9 9 9 9 9
          9 9 9 9 9 9
          9 9 9 9 9 9
          9 9 9 9 9 9
          9 9 9 9 9 9
          9 9 9 9 9 9
          9 9 9 9 9 9
          9 9 9 9 9 9
          9 9 9 9 9 9
          9 9 9 9 9 9
          9 9 9 9 9 9
          9 9 9 9 9 9
          9 9 9 9 9 9
          9 9 9 9 9 9
          9 9 9 9 9 9
          9 9 9 9 9 9
          9 9 9 9 9 9
          9 9 9 9 9 9
          9 9 9 9 9 9
          9 9 9 9 9 9
          9 9 9 9 9 9
          9 9 9 9 9 9
          9 9 9 9 9 9
          9 9 9 9 9 9
          9 9 9 9 9 9
          9 9 9 9 9 9
          9 9 9 9 9 9
          9 9 9 9 9 9
          9 9 9 9 9 9
          9 9 9 9 9 9
          9 9 9 9 9 9
          9 9 9 9 9 9
          9 9 9 9 9 9
          9 9 9 9 9 9
          9 9 9 9 9 9
          9 9 9 9 9 9
          9 9 9 9 9 9
          9 9 9 9 9 9
          9 9 9 9 9 9
          9 9 9 9 9 9
          9 9 9 9 9 9
          9 9 9 9 9 9
          9 9 9 9 9 9
          9 9 9 9 9 9
          9 9 9 9 9 9
          9 9 9 9
        </DataArray>
      </Cells>
    </Piece>
  </UnstructuredGrid>
</VTKFile>
