<?xml version="1.0"?>
<VTKFile type="UnstructuredGrid" version="0.1" byte_order="LittleEndian" header_type="UInt32" compressor="vtkZLibDataCompressor">
  <UnstructuredGrid>
    <Piece NumberOfPoints="1089" NumberOfCells="1024">
      <PointData>
        <DataArray type="Float64" Name="P1" format="ascii" RangeMin="-8396449.948640777" RangeMax="54374960.42024204">
          2487827.230094075 -3272063.0374922603 -4278002.041416609 -3548789.574589446 -4103225.429921248 -5467253.660861969
          -7166818.320861565 -6149411.190366676 637475.9501760509 10176014.687018901 19448376.60641416 27533973.703673974
          33512217.974110488 37896175.52390039 41198912.459220365 43567714.25038601 45149866.36771292 46059796.37398034
          46411931.8319675 46251881.81421337 45625255.39325693 44530322.66669122 42965353.73210929 40897582.074420616
          38294241.17853466 35087358.891086295 31208963.058710396 26699567.682469003 21599686.76342416 15736126.250089994
          8935692.090980617 3224763.0074946964 629717.7210308873 2532742.2958588833 -3331136.648146074 -4355236.80888907
          -3612859.1893742247 -4177304.79260566 -5565959.097971979 -7296207.584861786 -6260432.253324151 648984.8965918553
          10359731.777233338 19799496.300947398 28031070.229133956 34117245.32319293 38580350.550485276 41942714.87837193
          44354282.85924818 45964999.045509316 46891356.867523015 47249849.755657 47086910.20560577 46448970.71306379
          45334270.14408302 43741047.36471549 41635944.295392014 38985602.856543414 35720823.73007634 31772407.597897407
          27181599.89813922 21989646.068934407 16020225.224933868 9097016.480788507 3282982.6642277194 641086.6029809054
          2576253.0554206935 -3388363.2678360194 -4430056.759518496 -3674925.6060442305 -4249067.993830722 -5661578.418758077
          -7421551.376706403 -6367982.142445863 660134.0092533802 10537704.796923127 20139637.939095173 28512624.608121656
          34703355.9763547 39243134.261237375 42663261.68021273 45116258.72925632 46754645.90434372 47696917.91231994
          48061569.460030034 47895830.72129549 47246931.86993781 46113081.516946144 44492488.27330963 42351220.99074883
          39655348.520984285 36334482.74955163 32318235.56198647 27648560.96449103 22367412.963267565 16295441.602263331
          9253296.92542557 3339382.0334078274 652100.0268636436 2618128.789241876 -3443439.4558804845 -4502065.165925865
          -3734659.724798164 -4318134.516401277 -5753604.607650919 -7542185.0654628035 -6471490.578481875 670864.1646469212
          10708990.035578538 20466997.90596792 28976083.379246354 35267442.0588451 39881012.2199736 43356732.13784129
          45849601.45450656 47514619.8120278 48472207.990770936 48842786.77110185 48674354.030223586 48014907.64533915
          46862627.109285496 45215691.91489959 43039619.37967754 40299926.82111551 36925082.00036592 32843552.678581238
          28097974.803820066 22730984.324140996 16560316.037657717 9403704.742483893 3393662.0555906915 662699.5939492808
          2658134.9781987905 -3496056.765301092 -4570858.754296997 -3791727.0120449625 -4384117.5618010275 -5841522.283702596
          -7657433.057887073 -6570377.875867363 681115.2708436238 10872628.23474694 20779742.86834364 29418851.006948862
          35806344.48587775 40490412.080773056 44019242.56727751 46550204.05192179 48240664.64123653 49212885.199445784
          49589126.59077359 49418120.12164362 48748597.09847957 47578709.19594812 45906608.08871595 43697284.183331594
          40915727.886343606 37489313.91401824 33345416.982621852 28527324.53673641 23078324.020943962 16813365.138824902
          9547397.593959624 3445518.7430532724 672825.942810977 2696035.8913837695 -3545905.1535825413 -4636032.164583091
          -3845791.202973167 -4446628.33010805 -5924813.400006816 -7766616.266688536 -6664061.350983006 690826.9262799721
          11027655.177894445 21076030.016654458 29838318.539532915 36316887.84350273 41067743.032337554 44646889.20981105
          47213938.30942667 48928502.264687926 49914585.19155193 50296191.20597581 50122746.44780365 49443677.056879535
          48257108.353595346 46561165.658342995 44320340.19475727 41499123.18647293 38023853.82499824 33820871.3018414
          28934080.273914754 23407385.39813063 17053097.845670756 9683528.787716853 3494646.536714095 682419.4051076496
          2731597.4512484255 -3592676.755462732 -4697182.8837833125 -3896518.3956737295 -4505280.753094395 -6002963.548129325
          -7869060.37286254 -6751962.411734359 699939.1508148916 11173113.412143525 21354029.469609853 30231895.32895578
          36795918.99592321 41609439.45616702 45235795.69534208 47836704.97846325 49573884.57054536 50572974.24076486
          50959613.75829818 50783881.20929119 50095854.67988975 48893634.76287256 47175322.051018275 44904939.39605394
          42046509.649706624 38525400.394295424 34266979.21213947 29315729.87635996 23716136.16007808 17278033.55989714
          9811257.57242044 3540742.021571284 691420.7312729828 2764590.330968363 -3636069.954466726 -4753916.568838881
          -3943581.465760886 -4559696.598845522 -6075468.760721624 -7964104.744018025 -6833514.209691279 708393.1813020649
          11308064.916901315 21611948.485045787 30597043.30679739 37240348.80321805 42112008.10139922 45782164.32843235
          48414488.00868375 50172649.666519746 51183806.57794791 51575116.01897576 51397260.930710696 50700924.25426008
          49484183.640913695 47745116.7419613 45447311.86862842 42554357.33214056 38990719.28683528 34680863.88705015
          29669812.19143225 24002585.258628633 17486721.73342806 9929760.260619273 3583507.94073123 699771.8742928837
          2794793.2227581064 -3675793.6800351203 -4805852.664581476 -3986664.7260447284 -4609510.859588644 -6141842.6911283685
          -8051111.846579047 -6908169.715998585 716132.3105551192 11431604.472296754 21848057.008441005 30931313.15402033
          37647196.144067176 42572077.86621866 46282330.20811191 48943411.77934219 50720781.1895048 51742984.89600109
          52138569.35623245 51958771.217715494 51254827.12796685 50024793.736796476 48266727.69401436 45943819.516537875
          43019259.72128445 39416689.26236575 35059749.09389352 29993952.12538472 24264811.266356327 17677762.539230797
          10038241.966430575 3622657.4312120504 707416.8168316173 2821996.2041958594 -3711571.835796657 -4852630.19354333
          -4025468.7298025857 -4654377.305332844 -6201624.012843873 -8129476.945045433 -6975410.043825906 723102.7489263322
          11542873.428271877 22060713.989271313 31232381.558655348 38013633.26315467 42986451.07762475 46732816.97692112
          49419800.05382188 51214469.401105165 52246622.67674813 52646057.53872791 52464509.34393234 51753713.44924928
          50511707.58898576 48736529.497448824 46391011.40827529 43437985.555102035 39800349.655049734 35401001.425239146
          30285896.772837505 24500991.60501204 17849828.16534366 10135948.697413266 3657918.3878773274 714302.4233923224
          2846004.118987981 -3743147.7465506713 -4893913.570157947 -4059715.0941355024 -4693974.060784995 -6254383.850154387
          -8198637.842291647 -7034752.806020647 729254.4898347391 11641073.532709377 22248393.81003813 31498088.632968526
          38337031.31264808 43352154.99063717 47130392.808496155 49840235.18640913 51650172.54456024 52691106.78447772
          53093939.807689816 52910847.10563803 52194004.169763885 50941432.04055024 49151151.758479975 46785679.35528807
          43807530.862709545 40138948.05614757 35702172.71100532 30543551.70078169 24709431.898975544 18001684.199971616
          10222179.498154627 3689037.846029333 720379.2961004857 2866639.8798312135 -3770288.5020039557 -4929398.279895469
          -4089151.2109629395 -4728009.052325977 -6299733.035904112 -8258084.393616874 -7085760.278460576 734542.1565684666
          11725480.441395456 22409712.105945587 31726474.467301343 38615004.8425452 43666492.09862041 47472125.102470204
          50201615.96190568 52024676.78473788 53073158.61389762 53478912.49231572 53294492.22464721 52572451.615547106
          51310797.35649065 49507536.13895305 47124912.20651539 44125169.802758686 40429986.8950017 35961041.450563185
          30765016.39410727 24888594.650298093 18132210.522190284 10296298.312838478 3715786.2623174093 725602.6107018065
          2883747.59581176 -3792789.069799501 -4958816.256805329 -4113554.70790004 -4756225.165777948 -6337328.983841361
          -8307367.51549259 -7128047.129847469 738925.8039781642 11795456.510122847 22543450.212725114 31915813.741764843
          38845453.9272219 43927087.7706071 47755432.273431204 50501212.362227455 52335152.9635291 53389891.98931746
          53798067.35157379 53612546.48889457 52886196.83987633 51617013.20020093 49802990.365550235 47406147.25829816
          44388502.800818644 40671267.54521617 36175652.04359531 30948617.81795074 25037126.390277173 18240421.08275949
          10357745.217582589 3737961.568222795 729932.9081564354 2897195.4260031446 -3810476.048820807 -4981940.79064651
          -4132737.518918721 -4778404.953082194 -6366881.959981871 -8346107.4064627 -7161287.4756125035 742371.6494808955
          11850462.46694465 22648577.474905923 32064647.309267495 39026602.60593217 44131933.72051323 47978131.00862399
          50736715.54130797 52579208.38960868 53638865.998181075 54048944.8116801 53862558.80634565 53132821.95841761
          51857719.712673455 50035237.51389063 47627217.16662559 44595500.47543474 40860930.57222437 36344350.58890072
          31092941.04393782 25153882.455809683 18325481.954606034 10406046.670416605 3755392.8692079233 733336.8169465256
          2906878.065232062 -3823210.938712891 -4998590.801485007 -4146549.43027131 -4794374.732258828 -6388160.54558397
          -8374000.708383143 -7185221.022582837 744852.709890462 11890067.580019057 22724270.678785253 32171809.707806814
          39157032.36870152 44279425.87358729 48138477.43458206 50906281.35870569 52754931.95297802 53818131.01484594
          54229580.34175633 54042571.420746036 53310395.73885187 52031032.00806023 50202458.94035749 47786390.812817566
          44744541.90251437 40997490.79330679 36465816.06905375 31196855.928975306 25237948.572291557 18386727.0567559
          10440824.44012177 3767943.667069245 735787.6822784209 2912718.776819523 -3830892.813239113 -5008634.335016287
          -4154880.9800672024 -4804007.939947061 -6400996.104087773 -8390826.361921245 -7199658.09319663 746349.3223369251
          11913957.971818974 22769929.942389067 32236451.656536594 39235709.536750905 44368395.32862203 48235200.777739964
          51008565.975569434 52860931.013575144 53926266.332616664 54338542.37355362 54151157.70056816 53417510.8778425
          52135576.55604447 50303329.385841906 47882406.717838556 44834445.90263815 41079865.94479261 36539085.84885386
          31259538.929407652 25288658.501039743 18423671.011070173 10461802.906818978 3775514.4945686795 737266.0806017922
          2914670.8999687564 -3833460.302671711 -5011991.154500452 -4157665.6084553814 -4807227.617474413 -6405286.093541545
          -8396449.948640777 -7204483.351154316 746849.5305356279 11921942.784405 22785190.49842975 32258056.73738136
          39262005.566031314 44398131.31750943 48267528.324945554 51042752.25028127 52896358.75545818 53962408.069202915
          54374960.42024204 54187450.1608242 53453311.643197976 52170518.16062927 50337043.006384015 47914497.8201671
          44864494.24168345 41107397.939780995 36563574.583307706 31280489.27696742 25305607.12546398 18436018.67595597
          10468814.475601938 3778044.8691001465 737760.2011488389 2912718.776815001 -3830892.8132426883 -5008634.3350195065
          -4154880.980070315 -4804007.939949966 -6400996.104090217 -8390826.36192282 -7199658.093197337 746349.3223366741
          11913957.971818965 22769929.94238929 32236451.656536885 39235709.536750965 44368395.328622006 48235200.77774052
          51008565.97557033 52860931.01357528 53926266.33261581 54338542.37355236 54151157.7005671 53417510.87784219
          52135576.55604466 50303329.38584165 47882406.717837825 44834445.902637936 41079865.94479306 36539085.84885431
          31259538.929408055 25288658.50104067 18423671.011071607 10461802.90682031 3775514.494569244 737266.0806008683
          2906878.0652274066 -3823210.938716287 -4998590.80148849 -4146549.430275357 -4794374.732263038 -6388160.5455877725
          -8374000.708385793 -7185221.022584234 744852.7098897736 11890067.580018738 22724270.678785156 32171809.70780676
          39157032.36870125 44279425.87358703 48138477.4345825 50906281.358706556 52754931.95297807 53818131.01484491
          54229580.34175488 54042571.42074485 53310395.73885167 52031032.00806074 50202458.940357484 47786390.812816985
          44744541.902514316 40997490.79330743 36465816.069054306 31196855.928975727 25237948.57229245 18386727.056757163
          10440824.44012255 3767943.6670693676 735787.6822783697 2897195.4260044084 -3810476.0488188174 -4981940.790646056
          -4132737.518920473 -4778404.953085235 -6366881.959985272 -8346107.406465506 -7161287.475614395 742371.6494796162
          11850462.466943644 22648577.474904798 32064647.309266236 39026602.6059311 44131933.72051248 47978131.00862343
          50736715.541307546 52579208.389608376 53638865.99818089 54048944.811680056 53862558.80634585 53132821.95841823
          51857719.7126744 50035237.51389156 47627217.16662636 44595500.47543536 40860930.57222481 36344350.5889009
          31092941.043937694 25153882.45580919 18325481.954604913 10406046.670414345 3755392.869206304 733336.8169496093
          2883747.595815956 -3792789.0697944677 -4958816.256802163 -4113554.707899607 -4756225.165779275 -6337328.983843467
          -8307367.515494486 -7128047.129848822 738925.8039770349 11795456.510121603 22543450.212723393 31915813.74176285
          38845453.927220404 43927087.7706061 47755432.27343003 50501212.362226166 52335152.96352851 53389891.98931781
          53798067.35157482 53612546.48889593 52886196.83987751 51617013.20020193 49802990.36555157 47406147.258299686
          44388502.800819516 40671267.54521625 36175652.04359502 30948617.81795009 25037126.390275694 18240421.08275698
          10357745.217579098 3737961.5682206335 729932.9081601609 2866639.8798284032 -3770288.502004214 -4929398.2798953215
          -4089151.2109634 -4728009.052326932 -6299733.035905083 -8258084.393617022 -7085760.27846 734542.156568727
          11725480.44139499 22409712.10594461 31726474.46730017 38615004.84254424 43666492.09861981 47472125.102469854
          50201615.96190539 52024676.78473741 53073158.6138972 53478912.492315985 53294492.2246481 52572451.615547895
          51310797.356491074 49507536.138953395 47124912.206515715 44125169.80275889 40429986.89500172 35961041.45056296
          30765016.39410687 24888594.65029767 18132210.52219014 10296298.312839024 3715786.2623179024 725602.6107003599
          2846004.118979589 -3743147.7465558774 -4893913.570161034 -4059715.09413727 -4693974.060785969 -6254383.850154595
          -8198637.842290614 -7034752.806018877 729254.4898357632 11641073.532709336 22248393.810037874 31498088.63296831
          38337031.31264759 43352154.99063663 47130392.808496356 49840235.18640986 51650172.5445602 52691106.78447684
          53093939.80768921 52910847.10563811 52194004.16976428 50941432.04055056 49151151.758479826 46785679.355287716
          43807530.86270989 40138948.05614867 35702172.711006366 30543551.700782675 24709431.898977336 18001684.199974876
          10222179.498159854 3689037.84603306 720379.2960952974 2821996.2041934934 -3711571.8357983036 -4852630.193544497
          -4025468.7298033694 -4654377.305333207 -6201624.012843796 -8129476.945044923 -6975410.043825404 723102.748925937
          11542873.428270672 22060713.98927037 31232381.558654755 38013633.263153546 42986451.07762321 46732816.97692024
          49419800.05382194 51214469.40110561 52246622.676748596 52646057.53872826 52464509.343932785 51753713.44925035
          50511707.5889874 48736529.49745042 46391011.40827703 43437985.55510478 39800349.65505346 35401001.42524286
          30285896.772841025 24500991.60501597 17849828.16534847 10135948.697419308 3657918.387882206 714302.4233908941
          2794793.2227618974 -3675793.680032213 -4805852.664580057 -3986664.7260446767 -4609510.859589115 -6141842.691128937
          -8051111.846579711 -6908169.715999673 716132.310552941 11431604.472293781 21848057.00843849 30931313.154018488
          37647196.14406517 42572077.86621643 46282330.20811016 48943411.779341504 50720781.18950554 51742984.89600294
          52138569.356234334 51958771.21771727 51254827.12796926 50024793.73679981 48266727.69401837 45943819.51654254
          43019259.721289866 39416689.26237173 35059749.09389955 29993952.12539058 24264811.266362112 17677762.53923669
          10038241.966436898 3622657.431217472 707416.8168331614 2764590.3309675697 -3636069.9544660724 -4753916.568839056
          -3943581.46576258 -4559696.598847845 -6075468.76072375 -7964104.744019198 -6833514.209692118 708393.1812995673
          11308064.91689709 21611948.48504168 30597043.306794286 37240348.80321583 42112008.101397805 45782164.32843167
          48414488.008683786 50172649.66652047 51183806.5779494 51575116.01897825 51397260.93071405 50700924.25426383
          49484183.64091789 47745116.74196654 45447311.8686346 42554357.332146876 38990719.28684154 34680863.88705673
          29669812.191439286 24002585.2586361 17486721.73343629 9929760.260629002 3583507.9407385527 699771.8742892736
          2731597.451243492 -3592676.7554657394 -4697182.883786408 -3896518.395677476 -4505280.753097908 -6002963.548131776
          -7869060.372863154 -6751962.411734352 699939.1508123251 11173113.412138171 21354029.469604492 30231895.328951914
          36795918.99592107 41609439.45616644 45235795.69534252 47836704.97846411 49573884.57054601 50572974.24076572
          50959613.75830069 50783881.209295385 50095854.679894224 48893634.76287709 47175322.05102388 44904939.39606056
          42046509.64971313 38525400.39430179 34266979.21214671 29315729.876368415 23716136.160087414 17278033.55990801
          9811257.572434483 3540742.021581941 691420.7312654806 2696035.8913855264 -3545905.1535845674 -4636032.164586755
          -3845791.202976698 -4446628.330110056 -5924813.400007011 -7766616.266687748 -6664061.35098304 690826.9262763348
          11027655.177887673 21076030.016648274 29838318.5395289 36316887.843500316 41067743.03233632 44646889.2098107
          47213938.30942699 48928502.2646887 49914585.191553354 50296191.205978416 50122746.447807424 49443677.05688388
          48257108.353600204 46561165.65834886 44320340.194764115 41499123.18648022 38023853.8250062 33820871.301851116
          28934080.273926068 23407385.39814223 17053097.845683422 9683528.787733495 3494646.536728837 682419.4051058351
          2658134.97820573 -3496056.765300808 -4570858.754298925 -3791727.0120464466 -4384117.561801199 -5841522.283701533
          -7657433.057885809 -6570377.875867669 681115.270839245 10872628.234739278 20779742.868336793 29418851.006944295
          35806344.48587431 40490412.08077028 44019242.56727564 46550204.05192111 48240664.641237386 49212885.19944799
          49589126.59077643 49418120.121646956 48748597.09848384 47578709.19595342 45906608.08872212 43697284.18333864
          40915727.886351705 37489313.91402789 33345416.982633773 28527324.536750045 23078324.02095743 16813365.138839092
          9547397.593978204 3445518.743071025 672825.942813805 2618128.7892418657 -3443439.455880092 -4502065.165924851
          -3734659.724797121 -4318134.516401612 -5753604.607652277 -7542185.065463067 -6471490.578481921 670864.1646432214
          10708990.035571069 20466997.905960333 28976083.379240226 35267442.05883998 39881012.219969474 43356732.13783861
          45849601.45450555 47514619.81202845 48472207.990773015 48842786.77110493 48674354.03022754 48014907.645344116
          46862627.10929143 45215691.91490623 43039619.37968495 40299926.82112398 36925082.00037588 32843552.6785932
          28097974.803833723 22730984.32415524 16560316.037673656 9403704.74250484 3393662.055609058 662699.5939465481
          2576253.0554172876 -3388363.2678337973 -4430056.759515021 -3674925.6060423013 -4249067.99383156 -5661578.41876064
          -7421551.376707386 -6367982.142445905 660134.0092496955 10537704.796915349 20139637.939087 28512624.60811484
          34703355.97634908 39243134.26123307 42663261.68021019 45116258.72925555 46754645.90434426 47696917.91232162
          48061569.46003296 47895830.72129971 47246931.869943336 46113081.51695288 44492488.273317486 42351220.99075762
          39655348.52099381 36334482.74956199 32318235.561998114 27648560.964504104 22367412.96328186 16295441.602280049
          9253296.925447326 3339382.033425906 652100.0268579995 2532742.295865246 -3331136.648139287 -4355236.808885357
          -3612859.1893738653 -4177304.792605703 -5565959.097971201 -7296207.584860689 -6260432.253324662 648984.8965863767
          10359731.777223773 19799496.30093888 28031070.22912831 34117245.32318869 38580350.55048191 41942714.87836981
          44354282.85924743 45964999.04550976 46891356.867524475 47249849.75565922 47086910.20560903 46448970.713068895
          45334270.14409028 43741047.36472466 41635944.29540261 38985602.85655467 35720823.73008808 31772407.59791001
          27181599.898152724 21989646.06894847 16020225.224949613 9097016.480808493 3282982.6642459203 641086.6029827013
          2487827.2300875187 -3272063.0374946743 -4278002.041416488 -3548789.5745884553 -4103225.4299211074 -5467253.66086232
          -7166818.320859965 -6149411.190364883 637475.9501720862 10176014.687009174 19448376.606404617 27533973.70366695
          33512217.97410474 37896175.52389533 41198912.45921609 43567714.25038279 45149866.367711216 46059796.373980515
          46411931.83196986 46251881.81421753 45625255.393261865 44530322.66669633 42965353.73211445 40897582.074426524
          38294241.17854288 35087358.89109713 31208963.058722854 26699567.682482272 21599686.76343759 15736126.250105252
          8935692.091001697 3224763.0075116465 629717.721019823
        </DataArray>
        <DataArray type="Float64" Name="P2" format="ascii" RangeMin="-248190911.1261508" RangeMax="144759.24161217627">
          -211844193.71045694 -182560218.6356299 -148660193.6773272 -114555518.85609272 -84657594.1924704 -58281333.4282492
          -34741650.30521802 -17243041.732572164 -8990004.619506944 -6389310.653303985 -5847731.521244917 -6115328.127511628
          -5942161.376286004 -5557942.502112916 -5192382.739537233 -4820644.807822698 -4417891.426233054 -3997402.597425498
          -3572458.324057225 -3146843.619659617 -2724343.497764058 -2311068.0850493945 -1913127.508194475 -1530254.4552335106
          -1162181.6142007122 -829734.1796837375 -553737.3462702442 -313772.3415433299 -89420.39308609185 72097.35062785633
          123559.74112490112 -321994.04863189696 -1651524.8456794773 -215668814.66876635 -185856148.657546 -151344094.90711832
          -116623696.55944252 -86185996.75647756 -59333540.738270305 -35368873.744867496 -17554346.459498197 -9152309.565391447
          -6504662.844513227 -5953306.078829511 -6225733.855954063 -6049440.763500647 -5658285.22723116 -5286125.6729075005
          -4907676.409192573 -4497651.744749289 -4069571.4385102293 -3636955.249407977 -3203656.5253542643 -2773528.6142608244
          -2352791.9546232983 -1947666.9849373277 -1557881.567207255 -1183163.5634374216 -844714.1449030807 -563734.4828794843
          -319437.16580686986 -91034.78212547464 73398.99216952139 125790.48108293813 -327807.3072842217 -1681341.3648309552
          -219373855.5813346 -189049028.60920885 -153944081.6703188 -118627210.91834271 -87666612.50695862 -60352849.88634314
          -35976486.5066729 -17855917.976793703 -9309539.90555136 -6616408.446576153 -6055579.753498366 -6332687.65158516
          -6153365.966103696 -5755490.648721288 -5376937.651105246 -4991986.891237599 -4574918.2871003775 -4139483.8577275043
          -3699435.6221529003 -3258693.12613818 -2821175.91544496 -2393211.29139804 -1981126.5553222203 -1584644.8940776438
          -1203489.494524452 -859225.749379294 -573419.0513588195 -324924.87555612915 -92598.69706432363 74659.93563950443
          127951.47407826231 -333438.8100867214 -1710225.6451941177 -222939670.336513 -192121928.1303861 -156446367.44447502
          -120555438.22734125 -89091590.42754623 -61333855.95107125 -36561266.70389761 -18146157.19286837 -9460861.924826624
          -6723954.930695385 -6154010.241397676 -6435622.392872457 -6253385.921058688 -5849043.334916271 -5464337.1434051115
          -5073129.197149099 -4649281.346772121 -4206769.143653557 -3759568.1391727775 -3311661.589391465 -2867032.7503712988
          -2432111.7706254288 -2013328.7986670055 -1610402.5218945707 -1223051.6277066655 -873192.0437330238 -582739.6976033801
          -330206.3704944396 -94103.84358290838 75873.49640051353 130031.26272512569 -338858.6948950314 -1738024.5267459173
          -226346289.08929166 -195057637.87781888 -158836938.52814317 -122397579.71875854 -90452950.12815909 -62271064.94456559
          -37119939.35619892 -18423438.662936285 -9605428.164654903 -6826699.996996717 -6248046.295603672 -6533961.60760492
          -6348940.480129611 -5938419.356717665 -5547834.680909 -5150648.900616538 -4720324.463753201 -4271050.474427454
          -3817016.0367477555 -3362265.272725191 -2910842.304370848 -2469275.5357664535 -2044093.3709937339 -1635010.1988691478
          -1241740.4082091546 -886534.8119070791 -591644.2228562463 -335252.0725574018 -95541.79251129173 77032.87790375135
          132018.19930939478 -344036.60850365413 -1764582.325744688 -229573638.76881835 -197838859.551823 -161101708.78193206
          -124142780.80507946 -91742669.96719909 -63158954.4797874 -37649212.5543409 -18686128.539783504 -9742386.785039162
          -6924038.2309928 -6337133.818529334 -6627125.842760236 -6439466.598796978 -6023092.076064616 -5626938.263988211
          -5224089.2258372465 -4787629.024881208 -4331949.080012753 -3871440.810124533 -3410206.00018194 -2952346.4351503714
          -2504483.604105788 -2073238.9961241516 -1658322.9276453003 -1259445.7151090715 -899175.4337510482 -600080.158806814
          -340032.25109420164 -96904.07143104359 78131.24815349525 133900.57563024995 -348942.04099097155 -1789742.55370036
          -232601787.1382394 -200448416.2199452 -163226690.8976658 -125780263.05755986 -92952784.58578607 -63992040.917351045
          -38145817.48726141 -18932604.441195644 -9870891.924832279 -7015368.468535713 -6420722.60267036 -6714539.712824028
          -6524405.1845845245 -6102538.551235542 -5701159.346060779 -5292996.602672957 -4850779.354684795 -4389088.848323206
          -3922506.329815101 -3455187.6879570438 -2991288.8115455983 -2537518.529178066 -2100585.6694517485 -1680196.7277880823
          -1276058.1996085062 -911035.8401456004 -607995.4046319461 -344517.38337817043 -98182.26669490046 79161.82371815795
          135666.7661612988 -353544.696134622 -1813349.8199387477 -235411206.50497442 -202869479.5725189 -165198181.45348698
          -127299466.80647062 -94075490.29006155 -64764951.91394919 -38606551.687822916 -19161276.913000997 -9990114.890801694
          -7100101.747143444 -6498273.607944694 -6795639.510629799 -6603208.492623114 -6176246.454358133 -5770019.296268351
          -5356926.666787594 -4909368.214349682 -4442101.300920012 -3969883.2884639837 -3496920.26158585 -3027418.304889868
          -2568167.2777906437 -2125957.03970278 -1700490.5410303534 -1291470.7321774387 -922039.5463733246 -615338.9168473
          -348678.5457706977 -99368.13531485094 80117.95894113614 137305.38141815912 -357814.89254593325 -1835251.8876132919
          -237983052.00258917 -205085809.7355855 -167002956.19459572 -128690201.62116085 -95103256.25682187 -65472502.97981792
          -39028324.66838804 -19370612.07833685 -10099255.965468926 -7177669.697425733 -6569266.641848729 -6869881.239294705
          -6675347.930320451 -6243721.371541916 -5833056.219575036 -5415450.591584065 -4963002.604733256 -4490630.843792352
          -4013253.893531101 -3535123.78963632 -3060492.567794831 -2596224.2660018103 -2149182.922252434 -1719068.2417126943
          -1305579.9295485849 -932112.7424537237 -622061.4371217291 -352487.8263330008 -100453.72286793758 80993.2402384965
          138805.42995133772 -361723.98687621055 -1855301.8433909446 -240299448.2524286 -207082002.30711818 -168628471.19734544
          -129942801.32482663 -96028939.091278 -66109776.34480266 -39408204.93350373 -19559154.971573804 -10197556.57320549
          -7247533.189951243 -6633208.273363516 -6936748.888091092 -6740322.098782755 -6304494.32427009 -5889831.983384672
          -5468161.611695664 -5011309.74477223 -4534340.176690929 -4052316.7015283094 -3569532.7419490055 -3090281.7206176454
          -2621494.486303468 -2170101.8877757094 -1735800.7072959933 -1318287.7271259434 -941185.41566384 -628116.241307963
          -355918.74913122837 -101431.48420655179 81781.58392766026 140156.48573300155 -365244.80938408035 -1873360.3320171381
          -242343777.25165093 -208843736.44998905 -170063064.89375302 -131048279.67221983 -96845897.87466638 -66672200.16159912
          -39743467.19352454 -19725552.97188645 -10284311.498128695 -7309191.018795933 -6689639.780432813 -6995762.743499934
          -6797664.868457887 -6358129.322820512 -5939939.274101638 -5514681.574297504 -5053943.075404343 -4572915.725563863
          -4086791.472917768 -3599900.2660920117 -3116572.053712551 -2643796.6482096184 -2188563.8620134476 -1750567.8977841525
          -1329502.9581818474 -949192.4779298963 -633459.8917516631 -358946.7004324348 -102294.40475749958 82477.33440772974
          141348.8561978404 -368352.1014078656 -1889297.8004300862 -244100959.61310738 -210358017.25453147 -171296155.4288471
          -131998482.43026541 -97548106.55299754 -67155625.87796861 -40031638.48610379 -19868578.694058258 -10358880.818487206
          -7362188.383426903 -6738144.912913625 -7046487.507446176 -6846953.267523366 -6404230.7446245 -5983008.490228884
          -5554667.33873735 -5090588.124550727 -4606072.949342388 -4116423.914785698 -3626002.365029916 -3139169.644224294
          -2662966.2464178824 -2204432.6656597275 -1763260.8873392688 -1339142.8968459426 -956074.8674811857 -638052.9725464358
          -361549.3453948951 -103036.11937976647 83075.35974008245 142373.74620578403 -371022.94290222443 -1902996.6905035053
          -245557720.8630184 -211613405.22452468 -172318427.5326027 -132786231.3788275 -98130260.35477398 -67556401.49833076
          -40270541.84738637 -19987151.663215797 -10420701.20709401 -7406124.920070039 -6778357.243192927 -7088539.984302133
          -6887814.951237121 -6442450.320672303 -6018714.26928209 -5587816.836189034 -5120968.060515689 -4633561.364791029
          -4140990.1715440354 -3647641.8528325274 -3157903.7807143275 -2678858.4659465817 -2217588.419286433 -1773783.7879337757
          -1347134.7190885034 -961780.5919440683 -641860.7856939225 -363707.0225883985 -103651.02487782821 83571.1421771894
          143223.41331605546 -373237.15724173316 -1914353.5152766795 -246702834.4396305 -212600225.68557563 -173122003.0429841
          -133405455.71357243 -98587872.89905699 -67871438.43658641 -40458336.16330936 -20080358.09406462 -10469296.243690977
          -7440662.030808887 -6809966.874038817 -7121596.095698228 -6919935.018104585 -6472493.510936432 -6046781.4438723065
          -5613874.599309776 -5144848.759646411 -4655169.131826704 -4160300.9227951462 -3664651.964316754 -3172630.088156545
          -2691350.8330674805 -2227929.7378025237 -1782055.5046193688 -1353416.835775709 -966265.6800503222 -644853.9862219855
          -365403.1038516987 -104134.38250046161 83960.86093109575 143891.3095423433 -374977.68054485816 -1923280.753208648
          -247527333.37161672 -213310751.20267695 -173700589.45009685 -133851306.51215659 -98917360.78713647 -68098269.75216807
          -40593550.88438299 -20147468.12071503 -10504285.39809797 -7465529.267986067 -6832726.281833595 -7145396.991158933
          -6943061.9474804625 -6494125.058042393 -6066990.230088937 -5632636.579163717 -5162043.220810353 -4670727.047828618
          -4174204.953018284 -3676899.4994396563 -3183233.250153044 -2700345.524563224 -2235375.642074975 -1788011.26456642
          -1357940.0539156822 -969495.010688959 -647009.1354524465 -366624.3077780176 -104482.40723754525 84241.46426604345
          144372.2048298212 -376230.8834028623 -1929708.4982886575 -248024683.36030543 -213739350.73652238 -174049601.355246
          -134120250.32886873 -99116112.76978281 -68235097.7671947 -40675114.410310924 -20187949.88451006 -10525391.37517066
          -7480529.5543955285 -6846455.094287455 -7159754.044431804 -6957012.454413938 -6507173.52820392 -6079180.469771805
          -5643954.083781914 -5172415.174898569 -4680111.813594677 -4182592.070343153 -3684287.3943417445 -3189629.2347881994
          -2705771.255927975 -2239867.122006528 -1791603.8673303886 -1360668.5262060873 -971442.9908406489 -648309.1534410975
          -367360.9561015184 -104692.34091599628 84410.72836744826 144662.28800079474 -376986.8339622758 -1933585.8094680824
          -248190911.1261508 -213882600.24808908 -174166250.53705034 -134210138.59831841 -99182541.03717719 -68280829.37625419
          -40702375.13817687 -20201479.98064322 -10532445.561351113 -7485543.054250296 -6851043.633290502 -7164552.558445443
          -6961675.089688826 -6511534.678486754 -6083254.7763053235 -5647736.69874293 -5175881.761397965 -4683248.455160539
          -4185395.2709207567 -3686756.627863793 -3191766.945174821 -2707584.6815310926 -2241368.2956098597 -1792804.611966244
          -1361580.455155366 -972094.0582883641 -648743.6544763759 -367607.16381599125 -104762.50640379937 84467.30099424225
          144759.24161217627 -377239.4930063644 -1934881.7113177467 -248024683.36030594 -213739350.736523 -174049601.35524645
          -134120250.32886897 -99116112.76978318 -68235097.76719518 -40675114.41031109 -20187949.88450985 -10525391.375170477
          -7480529.55439543 -6846455.094287182 -7159754.044431397 -6957012.45441373 -6507173.528203581 -6079180.469770336
          -5643954.083779712 -5172415.17489741 -4680111.813594812 -4182592.0703432937 -3684287.394341343 -3189629.234787449
          -2705771.255927388 -2239867.122006941 -1791603.8673314077 -1360668.526206087 -971442.9908394354 -648309.1534399093
          -367360.95610053255 -104692.34091432969 84410.72836976456 144662.28800281548 -376986.8339610182 -1933585.8094675776
          -247527333.37161714 -213310751.20267725 -173700589.4500972 -133851306.51215723 -98917360.78713748 -68098269.75216918
          -40593550.88438354 -20147468.120715067 -10504285.398098288 -7465529.267986781 -6832726.281834123 -7145396.991159109
          -6943061.947480535 -6494125.058042086 -6066990.230087442 -5632636.579161524 -5162043.220809244 -4670727.047828806
          -4174204.9530184106 -3676899.4994391445 -3183233.250152093 -2700345.5245623696 -2235375.642075091 -1788011.2645670644
          -1357940.0539150967 -969495.0106870261 -647009.1354506913 -366624.30777677824 -104482.40723597415 84241.46426804234
          144372.2048315923 -376230.883401728 -1929708.4982883225 -246702834.4396306 -212600225.68557453 -173122003.04298398
          -133405455.71357386 -98587872.89905903 -67871438.43658835 -40458336.16331062 -20080358.0940655 -10469296.243692674
          -7440662.030811551 -6809966.874041545 -7121596.095700344 -6919935.018105643 -6472493.510936726 -6046781.443872878
          -5613874.599310793 -5144848.759647155 -4655169.131826936 -4160300.92279511 -3664651.96431657 -3172630.088156215
          -2691350.8330668937 -2227929.73780146 -1782055.5046178303 -1353416.835773921 -966265.6800486112 -644853.9862207818
          -365403.10385143483 -104134.38250157285 83960.86092905326 143891.3095406927 -374977.68054577045 -1923280.753209452
          -245557720.86301965 -211613405.22452363 -172318427.53260285 -132786231.37882978 -98130260.35477683 -67556401.49833323
          -40270541.847388096 -19987151.66321717 -10420701.207096167 -7406124.92007326 -6778357.243196613 -7088539.98430544
          -6887814.951238956 -6442450.320673238 -6018714.269284362 -5587816.836192622 -5120968.060518302 -4633561.364791999
          -4140990.171544302 -3647641.8528326773 -3157903.7807145896 -2678858.4659465905 -2217588.4192852327 -1773783.787931663
          -1347134.7190870305 -961780.5919437925 -641860.7856944087 -363707.0225899193 -103651.0248813653 83571.14217233717
          143223.41331227182 -373237.1572438695 -1914353.515278395 -244100959.61311242 -210358017.25453377 -171296155.42884925
          -131998482.43026833 -97548106.55300048 -67155625.877971 -40031638.486105375 -19868578.69405908 -10358880.818487627
          -7362188.383427455 -6738144.912915003 -7046487.507448211 -6846953.267525034 -6404230.744625688 -5983008.490230393
          -5554667.338739525 -5090588.124553459 -4606072.949345035 -4116423.9147870913 -3626002.3650300633 -3139169.6442243853
          -2662966.246418476 -2204432.665660753 -1763260.8873406458 -1339142.8968475857 -956074.8674832084 -638052.9725491505
          -361549.34539810877 -103036.11938278071 83075.35973783361 142373.74620473388 -371022.9429025792 -1902996.6905046047
          -242343777.25165832 -208843736.44999427 -170063064.89375705 -131048279.67222321 -96845897.87466928 -66672200.16160155
          -39743467.19352625 -19725552.971887086 -10284311.498127755 -7309191.018794056 -6689639.780431783 -6995762.743500404
          -6797664.868459394 -6358129.322822184 -5939939.274102203 -5514681.574297467 -5053943.075405996 -4572915.72556704
          -4086791.4729198474 -3599900.266092347 -3116572.0537124705 -2643796.648210323 -2188563.862016011 -1750567.8977881386
          -1329502.9581853107 -949192.4779324777 -633459.8917545901 -358946.7004353435 -102294.40475843378 82477.33440889802
          141348.8561994107 -368352.10140657605 -1889297.800428742 -240299448.25243402 -207082002.30712292 -168628471.19734976
          -129942801.32483064 -96028939.0912817 -66109776.34480604 -39408204.933506705 -19559154.971575912 -10197556.573205922
          -7247533.189950408 -6633208.27336304 -6936748.888091863 -6740322.098784925 -6304494.324272867 -5889831.983386334
          -5468161.611696038 -5011309.744772697 -4534340.176691982 -4052316.7015295736 -3569532.741950084 -3090281.7206181297
          -2621494.48630363 -2170101.8877765057 -1735800.7072973112 -1318287.727126602 -941185.4156636365 -628116.2413076733
          -355918.74913099833 -101431.48420589823 81781.58392830117 140156.48573227378 -365244.8093843642 -1873360.3320119958
          -237983052.0025938 -205085809.73559004 -167002956.19460076 -128690201.62116635 -95103256.25682731 -65472502.97982301
          -39028324.668392844 -19370612.07834092 -10099255.965471415 -7177669.697426802 -6569266.641849565 -6869881.239296101
          -6675347.9303228045 -6243721.371544925 -5833056.219577716 -5415450.591585681 -4963002.604733331 -4490630.84379155
          -4013253.893531228 -3535123.789637586 -3060492.5677958494 -2596224.266001812 -2149182.92225127 -1719068.2417106666
          -1305579.9295464458 -932112.7424517133 -622061.4371195756 -352487.8263309964 -100453.72286694 80993.24023750244
          138805.42994723926 -361723.9868791626 -1855301.843383135 -235411206.50498447 -202869479.57252744 -165198181.45349535
          -127299466.80647902 -94075490.29006945 -64764951.913956314 -38606551.68782937 -19161276.91300627 -9990114.890804723
          -7100101.747144448 -6498273.607945148 -6795639.510630464 -6603208.492624041 -6176246.454359332 -5770019.296269787
          -5356926.666788993 -4909368.214350536 -4442101.300920242 -3969883.28846394 -3496920.2615859606 -3027418.3048906378
          -2568167.277791622 -2125957.0397025617 -1700490.541029128 -1291470.7321769942 -922039.5463741119 -615338.9168484325
          -348678.54577147576 -99368.13531476095 80117.95894071067 137305.38141393778 -357814.8925498659 -1835251.8876054853
          -232601787.1382549 -200448416.21995872 -163226690.89767832 -125780263.05757156 -92952784.58579637 -63992040.917359844
          -38145817.487269185 -18932604.44120192 -9870891.924835648 -7015368.468536394 -6420722.602670182 -6714539.712823759
          -6524405.184583871 -6102538.551234668 -5701159.3460602965 -5292996.6026732735 -4850779.35468611 -4389088.848324844
          -3922506.329815511 -3455187.687956454 -2991288.811546016 -2537518.5291797505 -2100585.6694532093 -1680196.7277893054
          -1276058.1996109514 -911035.8401494127 -607995.4046359536 -344517.38338109956 -98182.26669537555 79161.8237186563
          135666.7661584338 -353544.6961372858 -1813349.8199297441 -229573638.76883397 -197838859.55183893 -161101708.78194758
          -124142780.80509369 -91742669.96721101 -63158954.47979716 -37649212.554349825 -18686128.53979131 -9742386.785043975
          -6924038.23099457 -6337133.818529829 -6627125.842760229 -6439466.59879625 -6023092.0760633955 -5626938.263987165
          -5224089.225836795 -4787629.0248815175 -4331949.0800136095 -3871440.8101253454 -3410206.0001825406 -2952346.43515101
          -2504483.6041067084 -2073238.9961255929 -1658322.9276473923 -1259445.7151118356 -899175.4337538121 -600080.1588082098
          -340032.2510940746 -96904.07143045234 78131.24815328744 133900.57562777502 -348942.0409907247 -1789742.553685946
          -226346289.08930883 -195057637.877837 -158836938.52816066 -122397579.71877432 -90452950.12817246 -62271064.94457694
          -37119939.35620963 -18423438.662945714 -9605428.164660405 -6826699.99699846 -6248046.29560462 -6533961.6076062005
          -6348940.4801305225 -5938419.356718016 -5547834.6809091065 -5150648.900616486 -4720324.463752844 -4271050.474427173
          -3817016.036748465 -3362265.2727266527 -2910842.3043716704 -2469275.535766651 -2044093.370994727 -1635010.1988711238
          -1241740.4082110673 -886534.8119078098 -591644.2228546028 -335252.0725541741 -95541.79250925117 77032.87790335121
          132018.19930681787 -344036.6085018509 -1764582.3257256544 -222939670.33653867 -192121928.13040826 -156446367.4444941
          -120555438.2273579 -89091590.42756149 -61333855.951085605 -36561266.70391104 -18146157.192879017 -9460861.924830724
          -6723954.930694179 -6154010.241397374 -6435622.392875079 -6253385.921062068 -5849043.334919243 -5464337.143407502
          -5073129.197150781 -4649281.346773008 -4206769.143653835 -3759568.139172909 -3311661.58939172 -2867032.750371758
          -2432111.770626243 -2013328.7986683934 -1610402.5218963763 -1223051.6277083587 -873192.0437340802 -582739.6976032781
          -330206.3704930673 -94103.8435805618 75873.49640206339 130031.2627226331 -338858.6948951016 -1738024.5267273895
          -219373855.58136505 -189049028.60923296 -153944081.67033917 -118627210.91836098 -87666612.50697578 -60352849.88635951
          -35976486.5066882 -17855917.97680557 -9309539.90555539 -6616408.446573684 -6055579.753496488 -6332687.651586555
          -6153365.966106641 -5755490.6487246305 -5376937.651108415 -4991986.891240299 -4574918.287102593 -4139483.857729112
          -3699435.6221536715 -3258693.126138419 -2821175.915445501 -2393211.2913989555 -1981126.5553228224 -1584644.894077974
          -1203489.4945252836 -859225.7493808642 -573419.0513608281 -324924.8755574991 -92598.69706320221 74659.93564120367
          127951.47407485913 -333438.8100887368 -1710225.6451760852 -215668814.6687904 -185856148.6575674 -151344094.90713915
          -116623696.5594628 -86185996.75649558 -59333540.7382859 -35368873.74488232 -17554346.459511105 -9152309.565398525
          -6504662.844514174 -5953306.078827635 -6225733.855951771 -6049440.763499447 -5658285.227231482 -5286125.672908691
          -4907676.409194201 -4497651.744751142 -4069571.4385123565 -3636955.249410685 -3203656.525356981 -2773528.6142620975
          -2352791.9546227357 -1947666.9849355966 -1557881.5672052822 -1183163.563436394 -844714.1449032839 -563734.4828803013
          -319437.1658079217 -91034.78212661958 73398.99216722947 125790.48107724993 -327807.30728559504 -1681341.3648103424
          -211844193.71048117 -182560218.6356513 -148660193.67734486 -114555518.8561076 -84657594.19248515 -58281333.428264305
          -34741650.30523181 -17243041.732582655 -8990004.61951182 -6389310.653304558 -5847731.521246119 -6115328.127514978
          -5942161.37628961 -5557942.502115807 -5192382.739539359 -4820644.807824184 -4417891.426234202 -3997402.597425893
          -3572458.3240557346 -3146843.619656924 -2724343.4977626577 -2311068.085050404 -1913127.5081976312 -1530254.4552373737
          -1162181.6142026673 -829734.1796837822 -553737.3462709894 -313772.3415453118 -89420.39308777225 72097.35062585771
          123559.74111980677 -321994.0486346283 -1651524.8456661506
        </DataArray>
        <DataArray type="Float64" Name="displacement" NumberOfComponents="3" format="ascii" RangeMin="0.000006937729666177582" RangeMax="0.000010837440420688022">
          0.000006937729666177582 0 0 0.000007411839525021998 0 0
          0.000007818909231785045 0 0 0.000008159635537059763 0 0
          0.000008434715191439189 0 0 0.000008652315902710191 0 0
          0.000008820605378659638 0 0 0.000008947121906939075 0 0
          0.000009039403775200047 0 0 0.000009103511942647207 0 0
          0.00000914550736848521 0 0 0.000009169650658684104 0 0
          0.000009180202419213929 0 0 0.00000918005768479476 0 0
          0.000009172111490146664 0 0 0.000009158297191551028 0 0
          0.00000914054814528924 0 0 0.000009120205484060102 0 0
          0.00000909861034056241 0 0 0.000009076793386801919 0 0
          0.000009055785294784374 0 0 0.000009036527816973738 0 0
          0.000009019962705833977 0 0 0.000009007107459784276 0 0
          0.000008998979577243825 0 0 0.000008996796022269058 0 0
          0.000009001773758916417 0 0 0.0000090152649451607 0 0
          0.000009038621738976703 0 0 0.000009073150359866452 0 0
          0.000009120157027331966 0 0 0.00000917931673985637 0 0
          0.00000925030449592279 0 0 0.000007055765249175421 3.183943870755984e-7 0
          0.000007537941411583406 3.4015279006564685e-7 0 0.000007951936829262553 3.588345081531759e-7 0
          0.000008298460107025826 3.7447151742895436e-7 0 0.00000857821984968618 3.870957939837508e-7 0
          0.000008799522726938395 3.970821797959144e-7 0 0.000008970675408477245 4.048055168437945e-7 0
          0.00000909934443517537 4.1061176102244116e-7 0 0.00000919319634790542 4.1484686822690457e-7 0
          0.000009258395224454967 4.177889950709633e-7 0 0.000009301105142611588 4.1971629816839636e-7 0
          0.000009325659196483774 4.2082431022110207e-7 0 0.000009336390480180025 4.2130856393097903e-7 0
          0.000009336243283310228 4.2130192161031516e-7 0 0.000009328161895484272 4.2093724557139865e-7 0
          0.000009314112566285292 4.2030326365719566e-7 0 0.000009296061545296427 4.1948870371067236e-7 0
          0.00000927537278267802 4.1855511455893324e-7 0 0.000009253410228590393 4.175640450290828e-7 0
          0.000009231222090454614 4.1656279592374395e-7 0 0.000009209856575691725 4.155986680455396e-7 0
          0.000009190271459341739 4.147148813976937e-7 0 0.000009173424516444651 4.139546559834301e-7 0
          0.000009160350556705165 4.1336468802775055e-7 0 0.000009152084389827986 4.1299167375565617e-7 0
          0.00000914986368477859 4.128914635019682e-7 0 0.000009154926110522464 4.1311990760150776e-7 0
          0.000009168646830075263 4.1373906086618217e-7 0 0.000009192401006452624 4.1481097810789886e-7 0
          0.000009227517082619733 4.1639560587655796e-7 0 0.000009275323501541758 4.185528907220598e-7 0
          0.000009335489732264026 4.212679172954689e-7 0 0.000009407685243831861 4.245257702478495e-7 0
          0.000007154670561457368 6.515266403905091e-7 0 0.000007643605704960858 6.960506011653423e-7 0
          0.000008063404369296813 7.342787782806184e-7 0 0.000008414785092258351 7.662766040317436e-7 0
          0.000008698466411638587 7.921095107141243e-7 0 0.00000892287143719654 8.125445330020925e-7 0
          0.000009096423278691244 8.283487055699811e-7 0 0.000009226895943952059 8.402299538436119e-7 0
          0.000009322063440808359 8.488962032488069e-7 0 0.0000093881762529891 8.549166423498601e-7 0
          0.000009431484864223243 8.588604597110658e-7 0 0.000009456383108455567 8.61127771570329e-7 0
          0.000009467264819630848 8.621186941655539e-7 0 0.000009467115559407188 8.621051020631598e-7 0
          0.000009458920889442672 8.613588698295667e-7 0 0.000009444674621536925 8.600615601925343e-7 0
          0.00000942637056748956 8.583947358798233e-7 0 0.000009405391796849369 8.564843435229101e-7 0
          0.000009383121379165153 8.54456329753272e-7 0 0.000009360622215272324 8.5240748563968e-7 0
          0.0000093389572060063 8.504346022509054e-7 0 0.000009319097552171145 8.486261201645517e-7 0
          0.000009302014454570916 8.470704799582224e-7 0 0.000009288757228520054 8.458632355607331e-7 0
          0.000009280375189332984 8.450999409008992e-7 0 0.000009278123355196905 8.448948818533958e-7 0
          0.000009283256744299012 8.453623442928979e-7 0 0.000009297169796221402 8.46629310241613e-7 0
          0.00000932125695054617 8.488227617217481e-7 0 0.000009356865271899215 8.520653666440648e-7 0
          0.000009405341824906432 8.564797929193239e-7 0 0.000009466351445342931 8.620355194466705e-7 0
          0.000009539558968983834 8.687020251252493e-7 0 0.000007232620682792119 9.975808741502967e-7 0
          0.000007726882773699282 0.0000010657534536801775 0 0.00000815125514363775 0.0000011242862840787918 0
          0.000008506464158868343 0.0000011732795515889548 0 0.00000879323618565189 0.0000012128334424534807 0
          0.000009020086103511282 0.0000012441223969383543 0 0.000009195528791969418 0.0000012683208553095596 0
          0.000009327422956655316 0.0000012865127530830108 0 0.000009423627303198011 0.0000012997820257746224 0
          0.000009490460414334117 0.0000013090001828366594 0 0.000009534240872800239 0.000001315038733721387 0
          0.000009559410383353145 0.0000013185103138632039 0 0.000009570410650749599 0.0000013200275586965104 0
          0.00000957025976433595 0.000001320006747235558 0 0.000009561975813458539 0.0000013188641584945995 0
          0.000009547574332492535 0.0000013168777910901743 0 0.000009529070855813084 0.0000013143256436388238 0
          0.000009507863521508929 0.0000013114005585247771 0 0.00000948535046766881 0.0000013082953781322644 0
          0.000009462606175430604 0.0000013051583034910032 0 0.000009440705125932177 0.0000013021375356307116 0
          0.0000094206291012084 0.000001299368489779634 0 0.000009403359883294126 0.0000012969865811660144 0
          0.00000938995821979203 0.0000012951381165805904 0 0.000009381484858304777 0.000001293969402814098 0
          0.000009379208490440181 0.0000012936554279571193 0 0.000009384397807806051 0.000001294371180100235 0
          0.000009398462442400928 0.0000012963110869596237 0 0.00000942281202622334 0.0000012996695762514646 0
          0.000009458808300165583 0.0000013046344701676372 0 0.000009507813005119927 0.000001311393590900021 0
          0.000009569487325247938 0.000001319900206259113 0 0.000009643492444711174 0.000001330107584055411 0
          0.00000728767819849249 0.0000013555519080729586 0 0.000007785702804263981 0.0000014481874754252721 0
          0.000008213305661384972 0.0000015277241746409348 0 0.000008571218665498462 0.0000015942981427042689 0
          0.000008860173712247449 0.0000016480455165995963 0 0.000009088750499722602 0.0000016905621716934992 0
          0.000009265528726014583 0.0000017234439833525598 0 0.000009398426920269778 0.0000017481638455494208 0
          0.000009495363611634573 0.0000017661946522567266 0 0.0000095627054823497 0.000001778720644603719 0
          0.000009606819214655885 0.0000017869260637196415 0 0.000009632180325290384 0.000001791643382593486 0
          0.000009643264330990441 0.0000017937050742142458 0 0.000009643112295969853 0.0000017936767947875416 0
          0.000009634765284442421 0.0000017921242005189966 0 0.0000096202541738132 0.000001789425046801548 0
          0.000009601609841487249 0.0000017859570890281353 0 0.000009580241068723068 0.0000017819823689726924 0
          0.000009557556636779157 0.0000017777629284091548 0 0.00000953463920616081 0.0000017735001486929815 0
          0.000009512571437373328 0.000001769395411179631 0 0.000009492342586157456 0.000001765632723377451 0
          0.000009474941908253948 0.0000017623960927947884 0 0.000009461438226087903 0.000001759884326821083 0
          0.000009452900362084429 0.0000017582962328457733 0 0.000009450606665624233 0.000001757869591530276 0
          0.00000945583548608803 0.0000017588421835360082 0 0.000009470007186140213 0.0000017614782048479542 0
          0.000009494542128445181 0.0000017660418514510978 0 0.000009530812419995371 0.0000017727883434856766 0
          0.000009580190167783228 0.0000017819729010919275 0 0.000009642333976772617 0.000001793532022743076 0
          0.00000971690245192741 0.0000018074022069123487 0 0.0000073179546913197805 0.0000017243511536841844 0
          0.000007818048328954056 0.000001842189686084006 0 0.000008247427652389596 0.0000019433655969715197 0
          0.000008606827597913186 0.000002028052061541966 0 0.000008896983101811617 0.000002096422254990583 0
          0.00000912650950633553 0.000002150506235711462 0 0.000009304022153735577 0.0000021923340620986936 0
          0.000009437472470506828 0.00000222377935212729 0 0.000009534811883144355 0.000002246715723772263 0
          0.00000960243352412501 0.000002262649609613073 0 0.000009646730525925633 0.000002273087442229184 0
          0.000009672196998715658 0.0000022790881819971362 0 0.000009683327052664507 0.0000022817107892934713 0
          0.00000968317438601788 0.000002281674816003253 0 0.000009674792697021472 0.0000022796998140115467 0
          0.000009660221300314187 0.0000022762663130153336 0 0.000009641499510534934 0.0000022718548427115937 0
          0.00000962004196169181 0.0000022667987374658427 0 0.000009597263287792909 0.0000022614313316435963 0
          0.000009574250647231901 0.0000022560087955696838 0 0.000009552091198402455 0.000002250787299568935 0
          0.000009531778306885726 0.0000022460009132903358 0 0.000009514305338262875 0.000002241883706382872 0
          0.000009500745555357379 0.0000022386885749173643 0 0.000009492172220992724 0.000002236668414964632 0
          0.000009489868995422963 0.000002236125699159908 0 0.000009495119538902148 0.0000022373629001384277 0
          0.000009509350114958963 0.0000022407160925637914 0 0.000009533986987122089 0.0000022465213510996022 0
          0.000009570407962771163 0.0000022551033325447744 0 0.000009619990849285837 0.000002266786693698224 0
          0.000009682392833312098 0.0000022814906564426646 0 0.000009757271101495946 0.0000022991344426608085 0
          0.000007321794440777468 0.000002101968410886131 0 0.000007822150478816208 0.0000022456125127068784 0
          0.00000825175509867594 0.000002368945030086738 0 0.000008611343622266273 0.0000024721770620179256 0
          0.00000890165137149682 0.000002555519707492657 0 0.00000913129820911018 0.0000026214475892742715 0
          0.000009308903997848944 0.0000026724353301261042 0 0.000009442424336341872 0.0000027107668533599563 0
          0.00000953981482321773 0.0000027387260822876305 0 0.000009607471945446229 0.00000275814934455528 0
          0.000009651792189997096 0.000002770872967809057 0 0.000009677272025110795 0.000002778187815139765 0
          0.000009688407919027794 0.0000027813847496382065 0 0.00000968825517227704 0.0000027813408985236073 0
          0.000009679869085387469 0.000002778933389015192 0 0.00000966529004303158 0.000002774747982453616 0
          0.000009646558429881862 0.000002769370440179534 0 0.000009625089622208482 0.0000027632070937600866 0
          0.0000096022989962816 0.0000027566642747624127 0 0.000009579274280929674 0.0000027500542524881826 0
          0.00000955710320498115 0.0000027436892962390672 0 0.00000953677965523864 0.0000027378547347934094 0
          0.00000951929751850475 0.0000027328358969295523 0 0.000009505730620746696 0.0000027289410606632417 0
          0.0000094971527879317 0.000002726478504010223 0 0.000009494848353853623 0.0000027258169383684374 0
          0.000009500101652306332 0.0000027273250751358253 0 0.000009514339695182611 0.0000027314125862780283 0
          0.000009538989494375253 0.000002738489143760688 0 0.000009575429580202952 0.000002748950501275974 0
          0.000009625038482984396 0.000002763192412516054 0 0.000009687473209490573 0.00000278111640968882 0
          0.00000976239076649246 0.000002802624025002165 0 0.000007297732716636278 0.0000024859964519348935 0
          0.000007796444427037263 0.0000026558842226628897 0 0.0000082246372307181 0.0000028017494978144206 0
          0.000008583044033088828 0.000002923841944007981 0 0.000008872397739559486 0.0000030224112278620676 0
          0.000009101289885286971 0.0000031003840838497582 0 0.000009278312005428192 0.000003160687246444132 0
          0.000009411393554007447 0.0000032060219100209975 0 0.000009508463985049042 0.0000032390892689561605 0
          0.000009575898764650539 0.0000032620611465697457 0 0.000009620073358909504 0.0000032771093661818743 0
          0.000009645469459254616 0.0000032857606305950433 0 0.000009656568757114563 0.0000032895416426117485 0
          0.00000965641651233781 0.0000032894897799316777 0 0.000009648057984772828 0.000003286642420254516 0
          0.000009633526853745009 0.0000032816923430754284 0 0.000009614856798579747 0.0000032753323278895767 0
          0.000009593458544174701 0.0000032680429427345156 0 0.000009570742815427525 0.0000032603047556477984 0
          0.000009547793766546932 0.000003252487087296655 0 0.000009525695551741614 0.0000032449592583483153 0
          0.000009505438791588913 0.0000032380587269334163 0 0.00000948801410666615 0.0000032321229511825943 0
          0.000009474491794009987 0.000003227516531272227 0 0.000009465942150657073 0.000003224604067378693 0
          0.000009463645289675646 0.0000032238216341938506 0 0.000009468881324133938 0.00000322560530640956 0
          0.000009483072576313908 0.00000323043960275016 0 0.00000950764136849751 0.0000032388090419399896 0
          0.000009543961700718343 0.0000032511816815718707 0 0.000009593407573009999 0.0000032680255792386257 0
          0.000009655637119327299 0.000003289224277156926 0 0.000009730308473625043 0.0000033146613175434445 0
          0.000007244612531760351 0.000002873768396528627 0 0.000007739694120412344 0.0000030701556866595437 0
          0.000008164770109354233 0.0000032387733922693068 0 0.000008520568069178772 0.0000033799101235997315 0
          0.00000880781557047872 0.0000034938544908926342 0 0.000009035041610640214 0.0000035839897479845226 0
          0.000009210775187049398 0.0000036536991487119025 0 0.000009342888035247327 0.000003706105226505571 0
          0.000009439251890775047 0.000003744330514796324 0 0.000009506195812722514 0.000003770885603337952 0
          0.000009550048860179686 0.000003788281081884246 0 0.000009575260102350447 0.0000037982817921594516 0
          0.000009586278608438682 0.0000038026525758878126 0 0.000009586127471851248 0.0000038025926235373232 0
          0.000009577829785995005 0.0000037993011255759764 0 0.000009563404427046765 0.0000037935789229773845 0
          0.000009544870271183331 0.00000378622685671516 0 0.00000952362777463807 0.00000377780045503136 0
          0.000009501077393644342 0.000003768855246168042 0 0.000009478295390854092 0.000003759818158353865 0
          0.000009456358028919245 0.000003751116119817487 0 0.000009436248717691522 0.0000037431392262528177 0
          0.000009418950867022646 0.0000037362775733537663 0 0.000009405526983258833 0.000003730952632544165 0
          0.00000939703957274631 0.0000037275858752478446 0 0.00000939475943061231 0.0000037266813961778232 0
          0.000009399957351984076 0.0000037287432900471155 0 0.000009414045306061921 0.0000037343316520225726 0
          0.000009438435262046171 0.000003744006577271046 0 0.000009474491218626347 0.000003758309132179413 0
          0.000009523577174491967 0.0000037777803831345526 0 0.000009585353752040228 0.0000038022857069768467 0
          0.00000965948157366832 0.000003831690480546676 0 0.000007161540594087119 0.0000032624302472195175 0
          0.000007650945221176743 0.0000034853778710667936 0 0.00000807114698311112 0.0000036768002221730597 0
          0.000008422865107635332 0.000003837024943776349 0 0.000008706818822494466 0.000003966379679114697 0
          0.000008931439325456507 0.000004068705249064137 0 0.000009105157814289443 0.000004147842474500703 0
          0.000009235755761553199 0.000004207336194850178 0 0.000009331014639807695 0.0000042507312495383445 0
          0.000009397190934599447 0.000004280877772194972 0 0.000009440541131474968 0.000004300625896449832 0
          0.000009465463283410844 0.000004311979149459008 0 0.000009476355443383662 0.000004316941058378585 0
          0.000009476206039837036 0.000004316872997792426 0 0.00000946800350121459 0.0000043131363422843915 0
          0.000009453743553806893 0.000004306640242299136 0 0.00000943542192390452 0.0000042982938482813154 0
          0.00000941442300910244 0.00000428872782070526 0 0.000009392131206995627 0.000004278572820045298 0
          0.000009369610439034388 0.0000042683135142963344 0 0.00000934792462666903 0.000004258434571453274 0
          0.000009328045903266646 0.000004249378845572365 0 0.000009310946402194317 0.000004241589190709857 0
          0.000009297676446336327 0.000004235544080052075 0 0.000009289286358576973 0.000004231721986785345 0
          0.000009287032362192596 0.000004230695181744434 0 0.000009292170680459541 0.0000042330359357641054 0
          0.000009306097091923774 0.0000042393800938957095 0 0.000009330207375131263 0.0000042503635011905964 0
          0.000009365849888181566 0.000004266600400379121 0 0.000009414372989174218 0.0000042887050341916424 0
          0.000009475441192054112 0.000004316524572404097 0 0.000009548719010766135 0.00000434990618479242 0
          0.000007048019482709274 0.000003648954925037404 0 0.00000752966631572464 0.000003898316832701005 0
          0.000007943207252324979 0.0000041124184311729915 0 0.00000828935011942173 0.0000042916261820531784 0
          0.000008568802743926329 0.00000443630654694138 0 0.000008789862676533428 0.000004550755397684629 0
          0.000008960827467937678 0.000004639268606129959 0 0.000009089355242740329 0.000004705810995522934 0
          0.000009183104125542634 0.000004754347389109121 0 0.00000924823142725357 0.0000047880655973112045 0
          0.000009290894458782116 0.000004810153430551873 0 0.000009315421557398401 0.000004822851788936158 0
          0.000009326141060372554 0.000004828401572569089 0 0.000009325994025095305 0.000004828325448332763 0
          0.000009317921508957394 0.000004824146083109277 0 0.000009303887603007848 0.000004816880341242462 0
          0.000009285856398295697 0.000004807545087076147 0 0.000009265190347646974 0.0000047968457001799925 0
          0.000009243251903887709 0.000004785487560123659 0 0.000009221088123724679 0.000004774012757169003 0
          0.000009199746063864651 0.000004762963381577883 0 0.000009180182447909343 0.000004752834755661331 0
          0.000009163353999460472 0.0000047441222017303715 0 0.000009150294392216361 0.000004737360881292672 0
          0.00000914203729987534 0.000004733085955855894 0 0.00000913981903269914 0.000004731937497489854 0
          0.000009144875900949499 0.000004734555578264366 0 0.000009158581557998382 0.000004741651376581989 0
          0.000009182309657217758 0.000004753936070845287 0 0.000009217387183218055 0.00000477209667774618 0
          0.0000092651411206097 0.000004796820213976595 0 0.000009325241301292488 0.0000048279357423649715 0
          0.000009397357557166223 0.000004865272325739748 0 0.000006903877723085053 0.000004030209796448565 0
          0.000007375674211305189 0.0000043056258604375155 0 0.000007780757663015747 0.000004542097501585156 0
          0.000008119821429087498 0.0000047400294706104625 0 0.000008393558860391218 0.000004899826518232416 0
          0.0000086100978112181 0.00000502623336318771 0 0.000008777566135859334 0.0000051239947242130435 0
          0.000008903465339661907 0.000005197489682391556 0 0.000008995296927972797 0.000005251097318806393 0
          0.000009059092286165286 0.000005288338516849834 0 0.000009100882799612655 0.000005312734159914164 0
          0.000009124908285093299 0.000005326759284754197 0 0.000009135408559385606 0.000005332888928124756 0
          0.000009135264531183435 0.000005332804850176636 0 0.000009127357109180649 0.00000532818881106063 0
          0.000009113610216044143 0.000005320163920468241 0 0.000009095947774440803 0.000005309853288090968 0
          0.000009075704373149441 0.000005298035993887388 0 0.000009054214600948858 0.000005285491117816083 0
          0.000009032504100786044 0.000005272817389521232 0 0.000009011598515607991 0.000005260613538647018 0
          0.000008992435002693737 0.000005249426640416711 0 0.000008975950719322317 0.000005239803770053579 0
          0.000008963158199133337 0.000005232336004508467 0 0.000008955069975766406 0.000005227614420732218 0
          0.00000895289707522616 0.0000052263459676401306 0 0.000008957850523517252 0.000005229237594147495 0
          0.000008971275880897736 0.0000052370747849270185 0 0.000008994518707625679 0.000005250643024651412 0
          0.000009028878849638404 0.000005270701111787353 0 0.000009075656152873245 0.000005298007844801531 0
          0.000009134527201624901 0.000005332374426441712 0 0.00000920516858018808 0.0000053736120594556575 0
          0.000006729397631012574 0.000004403008492050736 0 0.0000071892705165843385 0.000004703900835088946 0
          0.000007584116388664226 0.000004962246354723982 0 0.000007914611075228098 0.000005178487241547002 0
          0.00000818143040425182 0.000005353065686149165 0 0.00000839249681666008 0.000005491165298800185 0
          0.000008555732753377559 0.0000055979696897697735 0 0.000008678450135955571 0.000005678263009802006 0
          0.000008767960885945414 0.000005736829409640952 0 0.000008830143958924046 0.000005777515458140024 0
          0.000008870878310468417 0.00000580416772415264 0 0.000008894296605455982 0.00000581949018796766 0
          0.000008904531508764196 0.000005826186829873954 0 0.000008904391120553174 0.000005826094974626202 0
          0.000008896683540983046 0.000005821051946979083 0 0.000008883284069871698 0.000005812284745465905 0
          0.000008866068007037018 0.000005801020368619977 0 0.000008846336212506765 0.000005788109962125235 0
          0.000008825389546308694 0.0000057744046716656195 0 0.000008804227730554723 0.000005760558610014639 0
          0.000008783850487356768 0.000005747225889945801 0 0.000008765171289436448 0.000005735004191722795 0
          0.000008749103609515382 0.000005724491195609301 0 0.000008736634391706575 0.000005716332653803213 0
          0.000008728750580123028 0.000005711174318502418 0 0.000008726632594791519 0.0000057097885321493 0
          0.000008731460855738821 0.000005712947637186235 0 0.000008744546917192308 0.000005721509776454167 0
          0.000008767202333379356 0.0000057363330927940364 0 0.000008800694099533973 0.0000057582465743383 0
          0.000008846289210890165 0.000005788079209219415 0 0.000008903672425352342 0.000005825624736238397 0
          0.000008972528500824897 0.000005870676894196256 0 0.00000652521962150052 0.00000476416338798407 0
          0.000006971139411185641 0.000005089736297283636 0 0.000007354005185098318 0.0000053692724981147615 0
          0.000007674472265781633 0.000005603250451563504 0 0.00000793319597577866 0.000005792148618715913 0
          0.000008137858379637604 0.000005941575793265925 0 0.000008296141541906669 0.000006057140768907474 0
          0.000008415135531652002 0.000006144020114311422 0 0.000008501930417939749 0.000006207390398148632 0
          0.000008562226781771073 0.000006251413702444127 0 0.000008601725204147147 0.00000628025210922293 0
          0.000008624432959927632 0.00000629683139160524 0 0.000008634357323972202 0.0000063040773227112544 0
          0.000008634221195308173 0.000006303977933075977 0 0.000008626747472962867 0.00000629852125323441 0
          0.000008613754557904525 0.000006289034925751868 0 0.000008597060851101387 0.00000627684659319367 0
          0.00000857792774292498 0.0000062628772161059004 0 0.000008557616623746827 0.000006248047755034649 0
          0.000008537096882908801 0.000006233065976075029 0 0.000008517337909752778 0.000006218639645322154 0
          0.000008499225461140457 0.000006205415467508731 0 0.000008483645293933551 0.000006194040147367465 0
          0.000008471554407174856 0.0000061852124046452004 0 0.00000846390979990717 0.000006179630959088775 0
          0.000008461856076795377 0.000006178131504200399 0 0.00000846653784250437 0.0000061815497334822784 0
          0.00000847922685713042 0.000006190814178576323 0 0.000008501194880769808 0.000006206853371124447 0
          0.000008533670466498846 0.000006230564296657536 0 0.000008577882167393846 0.0000062628439407064764 0
          0.000008633524306183158 0.000006303469123585294 0 0.000008700291205595133 0.0000063522166656080135 0
          0.000006292452308828887 0.000005110572431673041 0 0.0000067224652697582255 0.00000545981820669489 0
          0.0000070916734746574605 0.0000057596798792029885 0 0.000007400708869436222 0.000006010670699864282 0
          0.000007650203400004145 0.000006213303919345718 0 0.00000784756509668156 0.000006373596154646515 0
          0.000008000201989788807 0.0000064975640227658884 0 0.000008114951231797809 0.000006590760487988549 0
          0.000008198649975180491 0.000006658738514599199 0 0.00000825679545009356 0.000006705962815480922 0
          0.000008294884886693722 0.0000067368981035167945 0 0.000008316782612529393 0.0000067546828889197885 0
          0.000008326352955148989 0.000006762455681902868 0 0.00000832622168245995 0.000006762349065506974 0
          0.000008319014562369724 0.000006756495622773045 0 0.000008306485129936846 0.0000067463195310310504 0
          0.000008290386920219865 0.000006733244967610957 0 0.000008271936327335149 0.000006718259857399928 0
          0.000008252349745399071 0.000006702352125285129 0 0.000008232561983744688 0.000006686281000033331 0
          0.000008213507851705053 0.000006670805710411302 0 0.000008196041509466766 0.000006656619983965572 0
          0.00000818101711721643 0.000006644417548242669 0 0.000008169357535974164 0.000006634947927888343 0
          0.000008161985626760081 0.000006628960647548347 0 0.00000816000516395789 0.000006627352165178857 0
          0.000008164519921951295 0.000006631018938736057 0 0.000008176756294673117 0.000006640957014707996 0
          0.000008197940676056165 0.000006658162439582718 0 0.00000822925779429198 0.000006683597419974996 0
          0.000008271892377572091 0.000006718224162499598 0 0.000008325549652729433 0.000006761803259760598 0
          0.000008389934846596936 0.00000681409530436206 0 0.000006032555642768581 0.0000054392462523791286 0
          0.000006444807811970977 0.000005810952905272687 0 0.000006798766639230736 0.000006130099439291853 0
          0.000007095037969244941 0.0000063972321135502515 0 0.000007334227646710683 0.000006612897187161511 0
          0.0000075234377286507774 0.000006783498220960059 0 0.000007669770272088054 0.000006915438775780334 0
          0.000007779780035120102 0.000007014628941065153 0 0.000007860021775844514 0.000007086978806257333 0
          0.000007915765672750349 0.000007137240221201865 0 0.000007952281904326664 0.000007170165035743738 0
          0.000007973275190103081 0.00000718909360561456 0 0.000007982450249609212 0.000007197366286545939 0
          0.00000798232439886578 0.000007197252813380383 0 0.000007975414953893514 0.000007191022920960395 0
          0.000007963403023629436 0.000007180192379057041 0 0.000007947969717010575 0.000007166276957441385 0
          0.000007930281187522158 0.000007150328116945254 0 0.000007911503588649408 0.000007133397318400481 0
          0.00000789253311936854 0.0000071162926184933874 0 0.000007874265978655763 0.000007099822073910296 0
          0.000007857521047386228 0.000007084724027568382 0 0.000007843117206435088 0.0000070717368223848235 0
          0.000007831939199965855 0.000007061658186828388 0 0.000007824871772142035 0.0000070552858493678485 0
          0.00000782297310824021 0.000007053573921434708 0 0.000007827301393536955 0.000007057476514460464 0
          0.0000078390323683123 0.000007068053733198499 0 0.000007859341772846278 0.0000070863656824021885 0
          0.000007889365402594498 0.000007113436450623918 0 0.000007930239053012564 0.000007150290126416073 0
          0.000007981680125926495 0.000007196671905488421 0 0.000008043406023162307 0.000007252326983550736 0
          0.000005747421781334132 0.000005747421781337514 0 0.000006140188501938898 0.000006140188501942217 0
          0.0000064774171648732935 0.000006477417164876554 0 0.000006759684979070696 0.000006759684979073896 0
          0.000006987569153464477 0.00000698756915346762 0 0.000007167836060325766 0.000007167836060328849 0
          0.0000073072520719256814 0.000007307252071928712 0 0.000007412062130158237 0.000007412062130161217 0
          0.000007488511176917449 0.000007488511176920372 0 0.000007541620291234033 0.0000075416202912368964 0
          0.0000075764105521387035 0.00000757641055214151 0 0.0000075964115724488375 0.000007596411572451591 0
          0.00000760515296498181 0.000007605152964984514 0 0.000007605033062680538 0.0000076050330626831896 0
          0.000007598450198487938 0.000007598450198490529 0 0.000007587006022300605 0.000007587006022303135 0
          0.000007572302184015134 0.000007572302184017607 0 0.000007555449717882723 0.000007555449717885142 0
          0.0000075375596581545696 0.000007537559658156934 0 0.000007519485844201802 0.000007519485844204104 0
          0.0000075020821153955425 0.000007502082115397781 0 0.0000074861286475115076 0.000007486128647513683 0
          0.000007472405616325411 0.000007472405616327531 0 0.0000074617559478171215 0.000007461755947819188 0
          0.000007455022567966508 0.0000074550225679685195 0 0.000007453213646025112 0.00000745321364602707 0
          0.0000074573373512444785 0.000007457337351246386 0 0.000007468513851542623 0.000007468513851544478 0
          0.000007487863314837555 0.000007487863314839354 0 0.0000075164678522488835 0.000007516467852250624 0
          0.000007555409574896217 0.000007555409574897897 0 0.000007604419241848057 0.000007604419241849676 0
          0.000007663227612172912 0.00000766322761217447 0 0.000005439246252376035 0.000006032555642772265 0
          0.000005810952905269654 0.000006444807811974601 0 0.000006130099439288881 0.000006798766639234304 0
          0.000006397232113547338 0.000007095037969248454 0 0.000006612897187158657 0.000007334227646714133 0
          0.000006783498220957265 0.000007523437728654171 0 0.000006915438775777597 0.000007669770272091393 0
          0.000007014628941062473 0.00000777978003512339 0 0.000007086978806254715 0.000007860021775847744 0
          0.000007137240221199307 0.000007915765672753524 0 0.0000071701650357412376 0.00000795228190432979 0
          0.000007189093605612115 0.000007973275190106156 0 0.000007197366286543545 0.000007982450249612234 0
          0.000007197252813378043 0.000007982324398868752 0 0.000007191022920958117 0.000007975414953896431 0
          0.000007180192379054824 0.000007963403023632301 0 0.000007166276957439227 0.000007947969717013387 0
          0.0000071503281169431575 0.000007930281187524918 0 0.000007133397318398446 0.000007911503588652113 0
          0.000007116292618491416 0.000007892533119371189 0 0.000007099822073908388 0.000007874265978658355 0
          0.000007084724027566537 0.000007857521047388767 0 0.000007071736822383037 0.000007843117206437575 0
          0.0000070616581868266595 0.000007831939199968287 0 0.000007055285849366178 0.000007824871772144417 0
          0.000007053573921433096 0.000007822973108242541 0 0.000007057476514458907 0.000007827301393539239 0
          0.000007068053733196998 0.000007839032368314535 0 0.000007086365682400747 0.000007859341772848463 0
          0.000007113436450622538 0.00000788936540259663 0 0.0000071502901264147505 0.000007930239053014646 0
          0.000007196671905487159 0.000007981680125928526 0 0.000007252326983549534 0.000008043406023164284 0
          0.000005110572431670211 0.000006292452308832871 0 0.00000545981820669212 0.000006722465269762158 0
          0.00000575967987920028 0.00000709167347466134 0 0.000006010670699861635 0.000007400708869440049 0
          0.000006213303919343133 0.000007650203400007914 0 0.000006373596154643991 0.000007847565096685272 0
          0.000006497564022763431 0.00000800020198979246 0 0.0000065907604879861556 0.00000811495123180141 0
          0.00000665873851459687 0.000008198649975184039 0 0.000006705962815478653 0.000008256795450097055 0
          0.0000067368981035145855 0.00000829488488669717 0 0.000006754682888917637 0.000008316782612532791 0
          0.000006762455681900773 0.000008326352955152336 0 0.000006762349065504934 0.000008326221682463249 0
          0.000006756495622771065 0.000008319014562372973 0 0.00000674631953102913 0.00000830648512994005 0
          0.0000067332449676091 0.000008290386920223017 0 0.000006718259857398138 0.00000827193632733825 0
          0.000006702352125283405 0.00000825234974540212 0 0.000006686281000031671 0.000008232561983747687 0
          0.000006670805710409704 0.000008213507851708004 0 0.0000066566199839640346 0.000008196041509469672 0
          0.0000066444175482411935 0.000008181017117219287 0 0.000006634947927886929 0.000008169357535976968 0
          0.0000066289606475469915 0.000008161985626762837 0 0.000006627352165177562 0.0000081600051639606 0
          0.000006631018938734824 0.000008164519921953963 0 0.0000066409570147068225 0.000008176756294675736 0
          0.000006658162439581606 0.00000819794067605874 0 0.000006683597419973941 0.000008229257794294506 0
          0.0000067182241624986 0.000008271892377574578 0 0.000006761803259759654 0.000008325549652731879 0
          0.000006814095304361179 0.000008389934846599336 0 0.0000047641633879814794 0.0000065252196215048 0
          0.000005089736297281112 0.000006971139411189875 0 0.000005369272498112305 0.000007354005185102506 0
          0.000005603250451561115 0.00000767447226578577 0 0.0000057921486187135905 0.000007933195975782748 0
          0.000005941575793263669 0.000008137858379641641 0 0.000006057140768905284 0.000008296141541910653 0
          0.000006144020114309299 0.000008415135531655934 0 0.000006207390398146576 0.00000850193041794363 0
          0.000006251413702442135 0.000008562226781774905 0 0.000006280252109221001 0.000008601725204150927 0
          0.0000062968313916033725 0.000008624432959931362 0 0.000006304077322709451 0.000008634357323975883 0
          0.000006303977933074238 0.000008634221195311808 0 0.0000062985212532327314 0.000008626747472966459 0
          0.000006289034925750251 0.000008613754557908067 0 0.000006276846593192112 0.000008597060851104884 0
          0.0000062628772161044054 0.000008577927742928426 0 0.000006248047755033222 0.000008557616623750225 0
          0.000006233065976073668 0.000008537096882912154 0 0.000006218639645320855 0.000008517337909756083 0
          0.000006205415467507492 0.00000849922546114372 0 0.00000619404014736629 0.000008483645293936768 0
          0.000006185212404644086 0.000008471554407178027 0 0.000006179630959087725 0.000008463909799910299 0
          0.000006178131504199413 0.000008461856076798464 0 0.0000061815497334813535 0.000008466537842507412 0
          0.000006190814178575462 0.000008479226857133418 0 0.000006206853371123645 0.000008501194880772763 0
          0.000006230564296656793 0.000008533670466501758 0 0.000006262843940705794 0.00000857788216739671 0
          0.000006303469123584672 0.000008633524306185975 0 0.0000063522166656074545 0.00000870029120559791 0
          0.000004403008492048385 0.000006729397631017153 0 0.000004703900835086665 0.000007189270516588874 0
          0.000004962246354721774 0.000007584116388668717 0 0.000005178487241544867 0.000007914611075232545 0
          0.0000053530656861471015 0.000008181430404256225 0 0.000005491165298798189 0.00000839249681666444 0
          0.000005597969689767846 0.000008555732753381875 0 0.000005678263009800143 0.000008678450135959837 0
          0.000005736829409639155 0.00000876796088594964 0 0.000005777515458138294 0.000008830143958928225 0
          0.000005804167724150974 0.000008870878310472544 0 0.000005819490187966061 0.000008894296605460058 0
          0.000005826186829872424 0.000008904531508768226 0 0.00000582609497462474 0.000008904391120557165 0
          0.000005821051946977686 0.000008896683540986991 0 0.000005812284745464568 0.000008883284069875596 0
          0.000005801020368618699 0.000008866068007040874 0 0.0000057881099621240175 0.000008846336212510577 0
          0.0000057744046716644675 0.000008825389546312461 0 0.0000057605586100135525 0.000008804227730558448 0
          0.000005747225889944781 0.000008783850487360448 0 0.000005735004191721839 0.000008765171289440083 0
          0.000005724491195608408 0.000008749103609518978 0 0.000005716332653802382 0.00000873663439171013 0
          0.000005711174318501654 0.000008728750580126543 0 0.0000057097885321486 0.000008726632594794992 0
          0.0000057129476371856 0.000008731460855742253 0 0.0000057215097764535955 0.0000087445469171957 0
          0.000005736333092793525 0.000008767202333382703 0 0.000005758246574337851 0.000008800694099537273 0
          0.000005788079209219036 0.000008846289210893415 0 0.000005825624736238087 0.000008903672425355539 0
          0.000005870676894196011 0.000008972528500828053 0 0.000004030209796446466 0.000006903877723089947 0
          0.000004305625860435488 0.000007375674211310039 0 0.000004542097501583199 0.000007780757663020553 0
          0.0000047400294706085795 0.000008119821429092262 0 0.000004899826518230605 0.000008393558860395941 0
          0.000005026233363185969 0.000008610097811222782 0 0.000005123994724211368 0.000008777566135863984 0
          0.000005197489682389945 0.000008903465339666518 0 0.000005251097318804847 0.000008995296927977371 0
          0.0000052883385168483545 0.000009059092286169821 0 0.00000531273415991275 0.000009100882799617148 0
          0.00000532675928475285 0.000009124908285097753 0 0.000005332888928123474 0.000009135408559390017 0
          0.00000533280485017542 0.000009135264531187806 0 0.000005328188811059481 0.000009127357109184982 0
          0.0000053201639204671555 0.000009113610216048433 0 0.000005309853288089944 0.000009095947774445055 0
          0.000005298035993886425 0.00000907570437315365 0 0.000005285491117815182 0.000009054214600953029 0
          0.000005272817389520399 0.000009032504100790178 0 0.0000052606135386462496 0.000009011598515612087 0
          0.000005249426640416008 0.000008992435002697796 0 0.000005239803770052943 0.000008975950719326337 0
          0.000005232336004507899 0.000008963158199137316 0 0.000005227614420731719 0.000008955069975770343 0
          0.000005226345967639695 0.000008952897075230058 0 0.000005229237594147124 0.000008957850523521106 0
          0.000005237074784926713 0.00000897127588090155 0 0.000005250643024651171 0.000008994518707629448 0
          0.000005270701111787182 0.00000902887884964213 0 0.000005298007844801431 0.000009075656152876926 0
          0.000005332374426441683 0.000009134527201628539 0 0.000005373612059455701 0.000009205168580191674 0
          0.0000036489549250355423 0.000007048019482714472 0 0.0000038983168326992135 0.000007529666315729796 0
          0.00000411241843117127 0.000007943207252330098 0 0.0000042916261820515284 0.00000828935011942681 0
          0.000004436306546939802 0.000008568802743931369 0 0.0000045507553976831215 0.000008789862676538428 0
          0.000004639268606128518 0.000008960827467942652 0 0.000004705810995521556 0.000009089355242745277 0
          0.000004754347389107806 0.000009183104125547548 0 0.0000047880655973099535 0.00000924823142725845 0
          0.000004810153430550688 0.00000929089445878697 0 0.000004822851788935037 0.00000931542155740322 0
          0.000004828401572568031 0.000009326141060377338 0 0.0000048283254483317675 0.000009325994025100052 0
          0.000004824146083108347 0.000009317921508962106 0 0.000004816880341241598 0.000009303887603012525 0
          0.000004807545087075346 0.000009285856398300342 0 0.000004796845700179255 0.000009265190347651581 0
          0.000004785487560122986 0.000009243251903892283 0 0.000004774012757168394 0.00000922108812372922 0
          0.000004762963381577339 0.000009199746063869163 0 0.000004752834755660852 0.000009180182447913826 0
          0.000004744122201729964 0.000009163353999464916 0 0.000004737360881292335 0.000009150294392220766 0
          0.000004733085955855623 0.000009142037299879704 0 0.000004731937497489647 0.000009139819032703467 0
          0.000004734555578264226 0.000009144875900953788 0 0.000004741651376581918 0.000009158581558002631 0
          0.000004753936070845285 0.000009182309657221966 0 0.000004772096677746249 0.000009217387183222224 0
          0.000004796820213976735 0.000009265141120613833 0 0.000004827935742365184 0.000009325241301296588 0
          0.000004865272325740034 0.000009397357557170277 0 0.0000032624302472178522 0.000007161540594092595 0
          0.000003485377871065203 0.000007650945221182188 0 0.000003676800222171543 0.000008071146983116533 0
          0.000003837024943774906 0.000008422865107640713 0 0.000003966379679113325 0.000008706818822499812 0
          0.000004068705249062833 0.000008931439325461824 0 0.000004147842474499467 0.00000910515781429474 0
          0.0000042073361948490075 0.000009235755761558472 0 0.0000042507312495372366 0.000009331014639812941 0
          0.000004280877772193926 0.000009397190934604661 0 0.000004300625896448851 0.000009440541131480155 0
          0.0000043119791494580915 0.000009465463283416001 0 0.000004316941058377732 0.000009476355443388786 0
          0.000004316872997791636 0.000009476206039842132 0 0.000004313136342283664 0.000009468003501219656 0
          0.000004306640242298472 0.000009453743553811927 0 0.000004298293848280713 0.000009435421923909526 0
          0.000004288727820704719 0.000009414423009107419 0 0.000004278572820044822 0.00000939213120700057 0
          0.000004268313514295924 0.000009369610439039303 0 0.000004258434571452927 0.00000934792462667392 0
          0.000004249378845572083 0.000009328045903271511 0 0.000004241589190709642 0.000009310946402199148 0
          0.0000042355440800519275 0.000009297676446341127 0 0.000004231721986785264 0.000009289286358581741 0
          0.000004230695181744419 0.000009287032362197331 0 0.000004233035935764158 0.000009292170680464245 0
          0.000004239380093895831 0.000009306097091928446 0 0.000004250363501190785 0.000009330207375135905 0
          0.000004266600400379379 0.00000936584988818617 0 0.000004288705034191971 0.00000941437298917879 0
          0.0000043165245724044945 0.00000947544119205865 0 0.000004349906184792887 0.000009548719010770631 0
          0.0000028737683965271463 0.000007244612531766095 0 0.00000307015568665814 0.000007739694120418065 0
          0.000003238773392267979 0.000008164770109359929 0 0.0000033799101235984775 0.000008520568069184443 0
          0.000003493854490891451 0.000008807815570484366 0 0.0000035839897479834058 0.000009035041610645838 0
          0.0000036536991487108522 0.000009210775187055007 0 0.0000037061052265045844 0.000009342888035252912 0
          0.0000037443305147953998 0.000009439251890780607 0 0.0000037708856033370888 0.000009506195812728049 0
          0.0000037882810818834457 0.000009550048860185193 0 0.0000037982817921587146 0.000009575260102355926 0
          0.0000038026525758871404 0.000009586278608444137 0 0.000003802592623536714 0.00000958612747185668 0
          0.000003799301125575427 0.000009577829786000411 0 0.0000037935789229768945 0.000009563404427052143 0
          0.0000037862268567147297 0.000009544870271188684 0 0.00000377780045503099 0.000009523627774643401 0
          0.0000037688552461677347 0.00000950107739364965 0 0.0000037598181583536206 0.00000947829539085937 0
          0.0000037511161198173056 0.000009456358028924498 0 0.000003743139226252699 0.000009436248717696753 0
          0.00000373627757335371 0.00000941895086702785 0 0.000003730952632544171 0.000009405526983264014 0
          0.000003727585875247915 0.000009397039572751465 0 0.0000037266813961779575 0.00000939475943061744 0
          0.000003728743290047315 0.000009399957351989178 0 0.000003734331652022838 0.000009414045306067 0
          0.000003744006577271376 0.000009438435262051225 0 0.0000037583091321798096 0.000009474491218631371 0
          0.0000037777803831350176 0.000009523577174496958 0 0.000003802285706977379 0.000009585353752045178 0
          0.000003831690480547274 0.000009659481573673229 0 0.0000024859964519336174 0.000007297732716642294 0
          0.0000026558842226616856 0.000007796444427043259 0 0.000002801749497813287 0.000008224637230724077 0
          0.000002923841944006915 0.000008583044033094786 0 0.0000030224112278610673 0.000008872397739565422 0
          0.0000031003840838488214 0.00000910128988529289 0 0.0000031606872464432576 0.000009278312005434093 0
          0.000003206021910020183 0.000009411393554013331 0 0.0000032390892689554062 0.000009508463985054905 0
          0.0000032620611465690485 0.000009575898764656383 0 0.0000032771093661812356 0.000009620073358915326 0
          0.000003285760630594463 0.000009645469459260422 0 0.0000032895416426112275 0.00000965656875712035 0
          0.000003289489779931217 0.00000965641651234358 0 0.000003286642420254112 0.000009648057984778577 0
          0.0000032816923430750816 0.000009633526853750735 0 0.0000032753323278892883 0.000009614856798585452 0
          0.000003268042942734286 0.000009593458544180387 0 0.0000032603047556476265 0.000009570742815433195 0
          0.0000032524870872965416 0.000009547793766552577 0 0.000003244959258348261 0.000009525695551747242 0
          0.000003238058726933421 0.000009505438791594518 0 0.000003232122951182659 0.000009488014106671734 0
          0.0000032275165312723515 0.000009474491794015545 0 0.000003224604067378873 0.000009465942150662611 0
          0.0000032238216341940873 0.00000946364528968116 0 0.0000032256053064098573 0.000009468881324139426 0
          0.000003230439602750519 0.000009483072576319372 0 0.000003238809041940411 0.000009507641368502947 0
          0.000003251181681572356 0.000009543961700723752 0 0.0000032680255792391763 0.00000959340757301538 0
          0.0000032892242771575423 0.000009655637119332645 0 0.000003314661317544127 0.000009730308473630354 0
          0.0000021019684108850553 0.000007321794440783722 0 0.0000022456125127058684 0.000007822150478822449 0
          0.0000023689450300857896 0.000008251755098682164 0 0.0000024721770620170375 0.000008611343622272485 0
          0.0000025555197074918305 0.000008901651371503015 0 0.0000026214475892735037 0.000009131298209116358 0
          0.000002672435330125393 0.00000930890399785511 0 0.000002710766853359301 0.000009442424336348027 0
          0.000002738726082287029 0.000009539814823223869 0 0.000002758149344554731 0.000009607471945452356 0
          0.000002770872967808562 0.00000965179219000321 0 0.000002778187815139323 0.000009677272025116897 0
          0.000002781384749637816 0.000009688407919033888 0 0.0000027813408985232684 0.00000968825517228312 0
          0.0000027789333890149057 0.000009679869085393537 0 0.0000027747479824533834 0.000009665290043037629 0
          0.0000027693704401793563 0.000009646558429887896 0 0.0000027632070937599625 0.000009625089622214498 0
          0.000002756664274762341 0.000009602298996287602 0 0.000002750054252488163 0.00000957927428093566 0
          0.000002743689296239101 0.000009557103204987123 0 0.000002737854734793497 0.000009536779655244595 0
          0.0000027328358969296954 0.000009519297518510686 0 0.0000027289410606634395 0.00000950573062075261 0
          0.00000272647850401047 0.000009497152787937591 0 0.000002725816938368733 0.000009494848353859493 0
          0.0000027273250751361747 0.000009500101652312179 0 0.000002731412586278436 0.000009514339695188434 0
          0.0000027384891437611546 0.000009538989494381047 0 0.0000027489505012765005 0.000009575429580208718 0
          0.000002763192412516641 0.000009625038482990142 0 0.000002781116409689469 0.000009687473209496294 0
          0.0000028026240250028798 0.000009762390766498148 0 0.0000017243511536832844 0.0000073179546913262095 0
          0.000001842189686083167 0.00000781804832896048 0 0.0000019433655969707388 0.000008247427652396012 0
          0.0000020280520615412415 0.000008606827597919596 0 0.0000020964222549899134 0.000008896983101818015 0
          0.000002150506235710846 0.000009126509506341921 0 0.0000021923340620981307 0.000009304022153741967 0
          0.0000022237793521267765 0.000009437472470513213 0 0.0000022467157237717978 0.000009534811883150731 0
          0.0000022626496096126547 0.000009602433524131372 0 0.0000022730874422288144 0.00000964673052593199 0
          0.0000022790881819968148 0.000009672196998722006 0 0.000002281710789293194 0.000009683327052670848 0
          0.0000022816748160030195 0.000009683174386024215 0 0.0000022796998140113574 0.000009674792697027797 0
          0.0000022762663130151896 0.000009660221300320502 0 0.0000022718548427114946 0.00000964149951054124 0
          0.0000022667987374657885 0.000009620041961698106 0 0.000002261431331643588 0.000009597263287799194 0
          0.000002256008795569721 0.000009574250647238172 0 0.0000022507872995690197 0.000009552091198408716 0
          0.000002246000913290468 0.000009531778306891979 0 0.0000022418837063830517 0.000009514305338269113 0
          0.000002238688574917591 0.000009500745555363603 0 0.0000022366684149649045 0.000009492172220998926 0
          0.000002236125699160227 0.000009489868995429141 0 0.000002237362900138795 0.00000949511953890831 0
          0.000002240716092564209 0.000009509350114965106 0 0.0000022465213511000715 0.000009533986987128215 0
          0.0000022551033325452966 0.000009570407962777272 0 0.0000022667866936987996 0.000009619990849291922 0
          0.0000022814906564432948 0.000009682392833318161 0 0.000002299134442661498 0.000009757271101501989 0
          0.0000013555519080722325 0.00000728767819849905 0 0.0000014481874754245998 0.000007785702804270548 0
          0.0000015277241746403146 0.000008213305661391537 0 0.0000015942981427036986 0.000008571218665505026 0
          0.0000016480455165990739 0.000008860173712254017 0 0.000001690562171693023 0.000009088750499729171 0
          0.0000017234439833521288 0.000009265528726021153 0 0.0000017481638455490337 0.000009398426920276348 0
          0.0000017661946522563795 0.000009495363611641135 0 0.0000017787206446034118 0.000009562705482356255 0
          0.0000017869260637193764 0.000009606819214662436 0 0.000001791643382593262 0.000009632180325296928 0
          0.0000017937050742140588 0.000009643264330996979 0 0.0000017936767947873912 0.000009643112295976387 0
          0.0000017921242005188817 0.00000963476528444895 0 0.0000017894250468014687 0.000009620254173819722 0
          0.00000178595708902809 0.00000960160984149377 0 0.000001781982368972682 0.000009580241068729586 0
          0.000001777762928409182 0.000009557556636785664 0 0.0000017735001486930468 0.000009534639206167305 0
          0.0000017693954111797354 0.000009512571437379816 0 0.0000017656327233775938 0.00000949234258616394 0
          0.0000017623960927949687 0.000009474941908260426 0 0.000001759884326821301 0.000009461438226094372 0
          0.0000017582962328460333 0.000009452900362090876 0 0.000001757869591530579 0.00000945060666563066 0
          0.0000017588421835363538 0.000009455835486094445 0 0.000001761478204848341 0.000009470007186146618 0
          0.0000017660418514515264 0.000009494542128451578 0 0.0000017727883434861482 0.000009530812420001756 0
          0.0000017819729010924432 0.00000958019016778959 0 0.0000017935320227436377 0.000009642333976778962 0
          0.0000018074022069129569 0.00000971690245193374 0 9.97580874149765e-7 0.000007232620682798785 0
          0.0000010657534536796872 0.000007726882773705959 0 0.0000011242862840783402 0.000008151255143644431 0
          0.0000011732795515885402 0.000008506464158875035 0 0.0000012128334424531027 0.000008793236185658586 0
          0.0000012441223969380113 0.00000902008610351798 0 0.0000012683208553092506 0.000009195528791976114 0
          0.0000012865127530827347 0.000009327422956662018 0 0.0000012997820257743782 0.000009423627303204715 0
          0.000001309000182836446 0.000009490460414340819 0 0.0000013150387337212038 0.00000953424087280694 0
          0.000001318510313863051 0.000009559410383359844 0 0.0000013200275586963865 0.00000957041065075629 0
          0.0000013200067472354632 0.000009570259764342637 0 0.0000013188641584945332 0.000009561975813465226 0
          0.0000013168777910901364 0.000009547574332499213 0 0.0000013143256436388126 0.000009529070855819755 0
          0.0000013114005585247924 0.000009507863521515595 0 0.0000013082953781323072 0.000009485350467675475 0
          0.000001305158303491074 0.000009462606175437262 0 0.0000013021375356308116 0.000009440705125938832 0
          0.0000012993684897797628 0.000009420629101215047 0 0.0000012969865811661713 0.000009403359883300769 0
          0.0000012951381165807759 0.00000938995821979866 0 0.0000012939694028143157 0.000009381484858311395 0
          0.0000012936554279573696 0.000009379208490446786 0 0.000001294371180100517 0.000009384397807812643 0
          0.000001296311086959938 0.000009398462442407508 0 0.0000012996695762518106 0.000009422812026229919 0
          0.000001304634470168016 0.00000945880830017215 0 0.000001311393590900434 0.000009507813005126478 0
          0.0000013199002062595605 0.000009569487325254477 0 0.000001330107584055893 0.000009643492444717695 0
          6.515266403901769e-7 0.000007154670561464062 0 6.960506011650354e-7 0.000007643605704967564 0
          7.342787782803344e-7 0.000008063404369303537 0 7.662766040314814e-7 0.000008414785092265088 0
          7.921095107138846e-7 0.00000869846641164533 0 8.125445330018753e-7 0.000008922871437203287 0
          8.283487055697853e-7 0.000009096423278697993 0 8.40229953843437e-7 0.000009226895943958813 0
          8.488962032486533e-7 0.000009322063440815116 0 8.54916642349727e-7 0.000009388176252995862 0
          8.588604597109507e-7 0.00000943148486423001 0 8.611277715702317e-7 0.000009456383108462337 0
          8.621186941654764e-7 0.000009467264819637618 0 8.621051020631031e-7 0.00000946711555941395 0
          8.613588698295303e-7 0.000009458920889449435 0 8.600615601925181e-7 0.000009444674621543681 0
          8.583947358798263e-7 0.000009426370567496306 0 8.564843435229318e-7 0.000009405391796856112 0
          8.544563297533115e-7 0.00000938312137917189 0 8.524074856397371e-7 0.00000936062221527906 0
          8.504346022509809e-7 0.000009338957206013031 0 8.48626120164646e-7 0.000009319097552177868 0
          8.470704799583363e-7 0.000009302014454577631 0 8.458632355608672e-7 0.000009288757228526759 0
          8.45099940901053e-7 0.000009280375189339684 0 8.448948818535696e-7 0.000009278123355203597 0
          8.453623442930925e-7 0.00000928325674430569 0 8.466293102418291e-7 0.000009297169796228069 0
          8.488227617219861e-7 0.00000932125695055283 0 8.520653666443248e-7 0.000009356865271905865 0
          8.564797929196062e-7 0.00000940534182491307 0 8.620355194469751e-7 0.000009466351445349558 0
          8.687020251255758e-7 0.000009539558968990444 0 3.1839438707544804e-7 0.000007055765249182033 0
          3.4015279006550555e-7 0.000007537941411590039 0 3.5883450815304497e-7 0.000007951936829269205 0
          3.7447151742883366e-7 0.00000829846010703249 0 3.870957939836394e-7 0.000008578219849692857 0
          3.970821797958122e-7 0.000008799522726945081 0 4.0480551684370254e-7 0.000008970675408483941 0
          4.1061176102235964e-7 0.000009099344435182075 0 4.1484686822683257e-7 0.000009193196347912128 0
          4.1778899507090067e-7 0.000009258395224461678 0 4.1971629816834284e-7 0.000009301105142618304 0
          4.208243102210577e-7 0.000009325659196490497 0 4.2130856393094356e-7 0.000009336390480186754 0
          4.213019216102886e-7 0.00000933624328331696 0 4.2093724557138065e-7 0.000009328161895491 0
          4.203032636571865e-7 0.000009314112566292021 0 4.1948870371067257e-7 0.000009296061545303156 0
          4.1855511455894293e-7 0.00000927537278268474 0 4.175640450291017e-7 0.000009253410228597112 0
          4.1656279592377174e-7 0.000009231222090461324 0 4.155986680455759e-7 0.000009209856575698429 0
          4.1471488139773915e-7 0.000009190271459348437 0 4.1395465598348585e-7 0.000009173424516451343 0
          4.1336468802781694e-7 0.000009160350556711855 0 4.1299167375573304e-7 0.000009152084389834667 0
          4.128914635020556e-7 0.000009149863684785266 0 4.13119907601606e-7 0.000009154926110529132 0
          4.1373906086629143e-7 0.000009168646830081915 0 4.1481097810801904e-7 0.000009192401006459271 0
          4.163956058766888e-7 0.00000922751708262637 0 4.185528907222009e-7 0.00000927532350154838 0
          4.2126791729561924e-7 0.000009335489732270632 0 4.2452577024800814e-7 0.000009407685243838456 0
          0 0.000006937729666184124 0 0 0.0000074118395250285484 0
          0 0.000007818909231791606 0 0 0.000008159635537066334 0
          0 0.000008434715191445767 0 0 0.000008652315902716774 0
          0 0.000008820605378666233 0 0 0.00000894712190694568 0
          0 0.000009039403775206659 0 0 0.000009103511942653824 0
          0 0.000009145507368491834 0 0 0.00000916965065869073 0
          0 0.000009180202419220552 0 0 0.000009180057684801379 0
          0 0.000009172111490153284 0 0 0.000009158297191557651 0
          0 0.00000914054814529586 0 0 0.000009120205484066719 0
          0 0.00000909861034056903 0 0 0.000009076793386808537 0
          0 0.000009055785294790994 0 0 0.000009036527816980355 0
          0 0.000009019962705840588 0 0 0.000009007107459790878 0
          0 0.000008998979577250418 0 0 0.000008996796022275646 0
          0 0.000009001773758922998 0 0 0.000009015264945167272 0
          0 0.000009038621738983262 0 0 0.000009073150359872998 0
          0 0.000009120157027338504 0 0 0.000009179316739862897 0
          0 0.000009250304495929298 0
          <InformationKey name="L2_NORM_RANGE" location="vtkDataArray" length="2">
            <Value index="0">
              6.9377296662e-06
            </Value>
            <Value index="1">
              1.0837440421e-05
            </Value>
          </InformationKey>
        </DataArray>
        <DataArray type="Float64" Name="displacement_x" format="ascii" RangeMin="0" RangeMax="0.00000976239076649246">
          0.000006937729666177582 0.000007411839525021998 0.000007818909231785045 0.000008159635537059763 0.000008434715191439189 0.000008652315902710191
          0.000008820605378659638 0.000008947121906939075 0.000009039403775200047 0.000009103511942647207 0.00000914550736848521 0.000009169650658684104
          0.000009180202419213929 0.00000918005768479476 0.000009172111490146664 0.000009158297191551028 0.00000914054814528924 0.000009120205484060102
          0.00000909861034056241 0.000009076793386801919 0.000009055785294784374 0.000009036527816973738 0.000009019962705833977 0.000009007107459784276
          0.000008998979577243825 0.000008996796022269058 0.000009001773758916417 0.0000090152649451607 0.000009038621738976703 0.000009073150359866452
          0.000009120157027331966 0.00000917931673985637 0.00000925030449592279 0.000007055765249175421 0.000007537941411583406 0.000007951936829262553
          0.000008298460107025826 0.00000857821984968618 0.000008799522726938395 0.000008970675408477245 0.00000909934443517537 0.00000919319634790542
          0.000009258395224454967 0.000009301105142611588 0.000009325659196483774 0.000009336390480180025 0.000009336243283310228 0.000009328161895484272
          0.000009314112566285292 0.000009296061545296427 0.00000927537278267802 0.000009253410228590393 0.000009231222090454614 0.000009209856575691725
          0.000009190271459341739 0.000009173424516444651 0.000009160350556705165 0.000009152084389827986 0.00000914986368477859 0.000009154926110522464
          0.000009168646830075263 0.000009192401006452624 0.000009227517082619733 0.000009275323501541758 0.000009335489732264026 0.000009407685243831861
          0.000007154670561457368 0.000007643605704960858 0.000008063404369296813 0.000008414785092258351 0.000008698466411638587 0.00000892287143719654
          0.000009096423278691244 0.000009226895943952059 0.000009322063440808359 0.0000093881762529891 0.000009431484864223243 0.000009456383108455567
          0.000009467264819630848 0.000009467115559407188 0.000009458920889442672 0.000009444674621536925 0.00000942637056748956 0.000009405391796849369
          0.000009383121379165153 0.000009360622215272324 0.0000093389572060063 0.000009319097552171145 0.000009302014454570916 0.000009288757228520054
          0.000009280375189332984 0.000009278123355196905 0.000009283256744299012 0.000009297169796221402 0.00000932125695054617 0.000009356865271899215
          0.000009405341824906432 0.000009466351445342931 0.000009539558968983834 0.000007232620682792119 0.000007726882773699282 0.00000815125514363775
          0.000008506464158868343 0.00000879323618565189 0.000009020086103511282 0.000009195528791969418 0.000009327422956655316 0.000009423627303198011
          0.000009490460414334117 0.000009534240872800239 0.000009559410383353145 0.000009570410650749599 0.00000957025976433595 0.000009561975813458539
          0.000009547574332492535 0.000009529070855813084 0.000009507863521508929 0.00000948535046766881 0.000009462606175430604 0.000009440705125932177
          0.0000094206291012084 0.000009403359883294126 0.00000938995821979203 0.000009381484858304777 0.000009379208490440181 0.000009384397807806051
          0.000009398462442400928 0.00000942281202622334 0.000009458808300165583 0.000009507813005119927 0.000009569487325247938 0.000009643492444711174
          0.00000728767819849249 0.000007785702804263981 0.000008213305661384972 0.000008571218665498462 0.000008860173712247449 0.000009088750499722602
          0.000009265528726014583 0.000009398426920269778 0.000009495363611634573 0.0000095627054823497 0.000009606819214655885 0.000009632180325290384
          0.000009643264330990441 0.000009643112295969853 0.000009634765284442421 0.0000096202541738132 0.000009601609841487249 0.000009580241068723068
          0.000009557556636779157 0.00000953463920616081 0.000009512571437373328 0.000009492342586157456 0.000009474941908253948 0.000009461438226087903
          0.000009452900362084429 0.000009450606665624233 0.00000945583548608803 0.000009470007186140213 0.000009494542128445181 0.000009530812419995371
          0.000009580190167783228 0.000009642333976772617 0.00000971690245192741 0.0000073179546913197805 0.000007818048328954056 0.000008247427652389596
          0.000008606827597913186 0.000008896983101811617 0.00000912650950633553 0.000009304022153735577 0.000009437472470506828 0.000009534811883144355
          0.00000960243352412501 0.000009646730525925633 0.000009672196998715658 0.000009683327052664507 0.00000968317438601788 0.000009674792697021472
          0.000009660221300314187 0.000009641499510534934 0.00000962004196169181 0.000009597263287792909 0.000009574250647231901 0.000009552091198402455
          0.000009531778306885726 0.000009514305338262875 0.000009500745555357379 0.000009492172220992724 0.000009489868995422963 0.000009495119538902148
          0.000009509350114958963 0.000009533986987122089 0.000009570407962771163 0.000009619990849285837 0.000009682392833312098 0.000009757271101495946
          0.000007321794440777468 0.000007822150478816208 0.00000825175509867594 0.000008611343622266273 0.00000890165137149682 0.00000913129820911018
          0.000009308903997848944 0.000009442424336341872 0.00000953981482321773 0.000009607471945446229 0.000009651792189997096 0.000009677272025110795
          0.000009688407919027794 0.00000968825517227704 0.000009679869085387469 0.00000966529004303158 0.000009646558429881862 0.000009625089622208482
          0.0000096022989962816 0.000009579274280929674 0.00000955710320498115 0.00000953677965523864 0.00000951929751850475 0.000009505730620746696
          0.0000094971527879317 0.000009494848353853623 0.000009500101652306332 0.000009514339695182611 0.000009538989494375253 0.000009575429580202952
          0.000009625038482984396 0.000009687473209490573 0.00000976239076649246 0.000007297732716636278 0.000007796444427037263 0.0000082246372307181
          0.000008583044033088828 0.000008872397739559486 0.000009101289885286971 0.000009278312005428192 0.000009411393554007447 0.000009508463985049042
          0.000009575898764650539 0.000009620073358909504 0.000009645469459254616 0.000009656568757114563 0.00000965641651233781 0.000009648057984772828
          0.000009633526853745009 0.000009614856798579747 0.000009593458544174701 0.000009570742815427525 0.000009547793766546932 0.000009525695551741614
          0.000009505438791588913 0.00000948801410666615 0.000009474491794009987 0.000009465942150657073 0.000009463645289675646 0.000009468881324133938
          0.000009483072576313908 0.00000950764136849751 0.000009543961700718343 0.000009593407573009999 0.000009655637119327299 0.000009730308473625043
          0.000007244612531760351 0.000007739694120412344 0.000008164770109354233 0.000008520568069178772 0.00000880781557047872 0.000009035041610640214
          0.000009210775187049398 0.000009342888035247327 0.000009439251890775047 0.000009506195812722514 0.000009550048860179686 0.000009575260102350447
          0.000009586278608438682 0.000009586127471851248 0.000009577829785995005 0.000009563404427046765 0.000009544870271183331 0.00000952362777463807
          0.000009501077393644342 0.000009478295390854092 0.000009456358028919245 0.000009436248717691522 0.000009418950867022646 0.000009405526983258833
          0.00000939703957274631 0.00000939475943061231 0.000009399957351984076 0.000009414045306061921 0.000009438435262046171 0.000009474491218626347
          0.000009523577174491967 0.000009585353752040228 0.00000965948157366832 0.000007161540594087119 0.000007650945221176743 0.00000807114698311112
          0.000008422865107635332 0.000008706818822494466 0.000008931439325456507 0.000009105157814289443 0.000009235755761553199 0.000009331014639807695
          0.000009397190934599447 0.000009440541131474968 0.000009465463283410844 0.000009476355443383662 0.000009476206039837036 0.00000946800350121459
          0.000009453743553806893 0.00000943542192390452 0.00000941442300910244 0.000009392131206995627 0.000009369610439034388 0.00000934792462666903
          0.000009328045903266646 0.000009310946402194317 0.000009297676446336327 0.000009289286358576973 0.000009287032362192596 0.000009292170680459541
          0.000009306097091923774 0.000009330207375131263 0.000009365849888181566 0.000009414372989174218 0.000009475441192054112 0.000009548719010766135
          0.000007048019482709274 0.00000752966631572464 0.000007943207252324979 0.00000828935011942173 0.000008568802743926329 0.000008789862676533428
          0.000008960827467937678 0.000009089355242740329 0.000009183104125542634 0.00000924823142725357 0.000009290894458782116 0.000009315421557398401
          0.000009326141060372554 0.000009325994025095305 0.000009317921508957394 0.000009303887603007848 0.000009285856398295697 0.000009265190347646974
          0.000009243251903887709 0.000009221088123724679 0.000009199746063864651 0.000009180182447909343 0.000009163353999460472 0.000009150294392216361
          0.00000914203729987534 0.00000913981903269914 0.000009144875900949499 0.000009158581557998382 0.000009182309657217758 0.000009217387183218055
          0.0000092651411206097 0.000009325241301292488 0.000009397357557166223 0.000006903877723085053 0.000007375674211305189 0.000007780757663015747
          0.000008119821429087498 0.000008393558860391218 0.0000086100978112181 0.000008777566135859334 0.000008903465339661907 0.000008995296927972797
          0.000009059092286165286 0.000009100882799612655 0.000009124908285093299 0.000009135408559385606 0.000009135264531183435 0.000009127357109180649
          0.000009113610216044143 0.000009095947774440803 0.000009075704373149441 0.000009054214600948858 0.000009032504100786044 0.000009011598515607991
          0.000008992435002693737 0.000008975950719322317 0.000008963158199133337 0.000008955069975766406 0.00000895289707522616 0.000008957850523517252
          0.000008971275880897736 0.000008994518707625679 0.000009028878849638404 0.000009075656152873245 0.000009134527201624901 0.00000920516858018808
          0.000006729397631012574 0.0000071892705165843385 0.000007584116388664226 0.000007914611075228098 0.00000818143040425182 0.00000839249681666008
          0.000008555732753377559 0.000008678450135955571 0.000008767960885945414 0.000008830143958924046 0.000008870878310468417 0.000008894296605455982
          0.000008904531508764196 0.000008904391120553174 0.000008896683540983046 0.000008883284069871698 0.000008866068007037018 0.000008846336212506765
          0.000008825389546308694 0.000008804227730554723 0.000008783850487356768 0.000008765171289436448 0.000008749103609515382 0.000008736634391706575
          0.000008728750580123028 0.000008726632594791519 0.000008731460855738821 0.000008744546917192308 0.000008767202333379356 0.000008800694099533973
          0.000008846289210890165 0.000008903672425352342 0.000008972528500824897 0.00000652521962150052 0.000006971139411185641 0.000007354005185098318
          0.000007674472265781633 0.00000793319597577866 0.000008137858379637604 0.000008296141541906669 0.000008415135531652002 0.000008501930417939749
          0.000008562226781771073 0.000008601725204147147 0.000008624432959927632 0.000008634357323972202 0.000008634221195308173 0.000008626747472962867
          0.000008613754557904525 0.000008597060851101387 0.00000857792774292498 0.000008557616623746827 0.000008537096882908801 0.000008517337909752778
          0.000008499225461140457 0.000008483645293933551 0.000008471554407174856 0.00000846390979990717 0.000008461856076795377 0.00000846653784250437
          0.00000847922685713042 0.000008501194880769808 0.000008533670466498846 0.000008577882167393846 0.000008633524306183158 0.000008700291205595133
          0.000006292452308828887 0.0000067224652697582255 0.0000070916734746574605 0.000007400708869436222 0.000007650203400004145 0.00000784756509668156
          0.000008000201989788807 0.000008114951231797809 0.000008198649975180491 0.00000825679545009356 0.000008294884886693722 0.000008316782612529393
          0.000008326352955148989 0.00000832622168245995 0.000008319014562369724 0.000008306485129936846 0.000008290386920219865 0.000008271936327335149
          0.000008252349745399071 0.000008232561983744688 0.000008213507851705053 0.000008196041509466766 0.00000818101711721643 0.000008169357535974164
          0.000008161985626760081 0.00000816000516395789 0.000008164519921951295 0.000008176756294673117 0.000008197940676056165 0.00000822925779429198
          0.000008271892377572091 0.000008325549652729433 0.000008389934846596936 0.000006032555642768581 0.000006444807811970977 0.000006798766639230736
          0.000007095037969244941 0.000007334227646710683 0.0000075234377286507774 0.000007669770272088054 0.000007779780035120102 0.000007860021775844514
          0.000007915765672750349 0.000007952281904326664 0.000007973275190103081 0.000007982450249609212 0.00000798232439886578 0.000007975414953893514
          0.000007963403023629436 0.000007947969717010575 0.000007930281187522158 0.000007911503588649408 0.00000789253311936854 0.000007874265978655763
          0.000007857521047386228 0.000007843117206435088 0.000007831939199965855 0.000007824871772142035 0.00000782297310824021 0.000007827301393536955
          0.0000078390323683123 0.000007859341772846278 0.000007889365402594498 0.000007930239053012564 0.000007981680125926495 0.000008043406023162307
          0.000005747421781334132 0.000006140188501938898 0.0000064774171648732935 0.000006759684979070696 0.000006987569153464477 0.000007167836060325766
          0.0000073072520719256814 0.000007412062130158237 0.000007488511176917449 0.000007541620291234033 0.0000075764105521387035 0.0000075964115724488375
          0.00000760515296498181 0.000007605033062680538 0.000007598450198487938 0.000007587006022300605 0.000007572302184015134 0.000007555449717882723
          0.0000075375596581545696 0.000007519485844201802 0.0000075020821153955425 0.0000074861286475115076 0.000007472405616325411 0.0000074617559478171215
          0.000007455022567966508 0.000007453213646025112 0.0000074573373512444785 0.000007468513851542623 0.000007487863314837555 0.0000075164678522488835
          0.000007555409574896217 0.000007604419241848057 0.000007663227612172912 0.000005439246252376035 0.000005810952905269654 0.000006130099439288881
          0.000006397232113547338 0.000006612897187158657 0.000006783498220957265 0.000006915438775777597 0.000007014628941062473 0.000007086978806254715
          0.000007137240221199307 0.0000071701650357412376 0.000007189093605612115 0.000007197366286543545 0.000007197252813378043 0.000007191022920958117
          0.000007180192379054824 0.000007166276957439227 0.0000071503281169431575 0.000007133397318398446 0.000007116292618491416 0.000007099822073908388
          0.000007084724027566537 0.000007071736822383037 0.0000070616581868266595 0.000007055285849366178 0.000007053573921433096 0.000007057476514458907
          0.000007068053733196998 0.000007086365682400747 0.000007113436450622538 0.0000071502901264147505 0.000007196671905487159 0.000007252326983549534
          0.000005110572431670211 0.00000545981820669212 0.00000575967987920028 0.000006010670699861635 0.000006213303919343133 0.000006373596154643991
          0.000006497564022763431 0.0000065907604879861556 0.00000665873851459687 0.000006705962815478653 0.0000067368981035145855 0.000006754682888917637
          0.000006762455681900773 0.000006762349065504934 0.000006756495622771065 0.00000674631953102913 0.0000067332449676091 0.000006718259857398138
          0.000006702352125283405 0.000006686281000031671 0.000006670805710409704 0.0000066566199839640346 0.0000066444175482411935 0.000006634947927886929
          0.0000066289606475469915 0.000006627352165177562 0.000006631018938734824 0.0000066409570147068225 0.000006658162439581606 0.000006683597419973941
          0.0000067182241624986 0.000006761803259759654 0.000006814095304361179 0.0000047641633879814794 0.000005089736297281112 0.000005369272498112305
          0.000005603250451561115 0.0000057921486187135905 0.000005941575793263669 0.000006057140768905284 0.000006144020114309299 0.000006207390398146576
          0.000006251413702442135 0.000006280252109221001 0.0000062968313916033725 0.000006304077322709451 0.000006303977933074238 0.0000062985212532327314
          0.000006289034925750251 0.000006276846593192112 0.0000062628772161044054 0.000006248047755033222 0.000006233065976073668 0.000006218639645320855
          0.000006205415467507492 0.00000619404014736629 0.000006185212404644086 0.000006179630959087725 0.000006178131504199413 0.0000061815497334813535
          0.000006190814178575462 0.000006206853371123645 0.000006230564296656793 0.000006262843940705794 0.000006303469123584672 0.0000063522166656074545
          0.000004403008492048385 0.000004703900835086665 0.000004962246354721774 0.000005178487241544867 0.0000053530656861471015 0.000005491165298798189
          0.000005597969689767846 0.000005678263009800143 0.000005736829409639155 0.000005777515458138294 0.000005804167724150974 0.000005819490187966061
          0.000005826186829872424 0.00000582609497462474 0.000005821051946977686 0.000005812284745464568 0.000005801020368618699 0.0000057881099621240175
          0.0000057744046716644675 0.0000057605586100135525 0.000005747225889944781 0.000005735004191721839 0.000005724491195608408 0.000005716332653802382
          0.000005711174318501654 0.0000057097885321486 0.0000057129476371856 0.0000057215097764535955 0.000005736333092793525 0.000005758246574337851
          0.000005788079209219036 0.000005825624736238087 0.000005870676894196011 0.000004030209796446466 0.000004305625860435488 0.000004542097501583199
          0.0000047400294706085795 0.000004899826518230605 0.000005026233363185969 0.000005123994724211368 0.000005197489682389945 0.000005251097318804847
          0.0000052883385168483545 0.00000531273415991275 0.00000532675928475285 0.000005332888928123474 0.00000533280485017542 0.000005328188811059481
          0.0000053201639204671555 0.000005309853288089944 0.000005298035993886425 0.000005285491117815182 0.000005272817389520399 0.0000052606135386462496
          0.000005249426640416008 0.000005239803770052943 0.000005232336004507899 0.000005227614420731719 0.000005226345967639695 0.000005229237594147124
          0.000005237074784926713 0.000005250643024651171 0.000005270701111787182 0.000005298007844801431 0.000005332374426441683 0.000005373612059455701
          0.0000036489549250355423 0.0000038983168326992135 0.00000411241843117127 0.0000042916261820515284 0.000004436306546939802 0.0000045507553976831215
          0.000004639268606128518 0.000004705810995521556 0.000004754347389107806 0.0000047880655973099535 0.000004810153430550688 0.000004822851788935037
          0.000004828401572568031 0.0000048283254483317675 0.000004824146083108347 0.000004816880341241598 0.000004807545087075346 0.000004796845700179255
          0.000004785487560122986 0.000004774012757168394 0.000004762963381577339 0.000004752834755660852 0.000004744122201729964 0.000004737360881292335
          0.000004733085955855623 0.000004731937497489647 0.000004734555578264226 0.000004741651376581918 0.000004753936070845285 0.000004772096677746249
          0.000004796820213976735 0.000004827935742365184 0.000004865272325740034 0.0000032624302472178522 0.000003485377871065203 0.000003676800222171543
          0.000003837024943774906 0.000003966379679113325 0.000004068705249062833 0.000004147842474499467 0.0000042073361948490075 0.0000042507312495372366
          0.000004280877772193926 0.000004300625896448851 0.0000043119791494580915 0.000004316941058377732 0.000004316872997791636 0.000004313136342283664
          0.000004306640242298472 0.000004298293848280713 0.000004288727820704719 0.000004278572820044822 0.000004268313514295924 0.000004258434571452927
          0.000004249378845572083 0.000004241589190709642 0.0000042355440800519275 0.000004231721986785264 0.000004230695181744419 0.000004233035935764158
          0.000004239380093895831 0.000004250363501190785 0.000004266600400379379 0.000004288705034191971 0.0000043165245724044945 0.000004349906184792887
          0.0000028737683965271463 0.00000307015568665814 0.000003238773392267979 0.0000033799101235984775 0.000003493854490891451 0.0000035839897479834058
          0.0000036536991487108522 0.0000037061052265045844 0.0000037443305147953998 0.0000037708856033370888 0.0000037882810818834457 0.0000037982817921587146
          0.0000038026525758871404 0.000003802592623536714 0.000003799301125575427 0.0000037935789229768945 0.0000037862268567147297 0.00000377780045503099
          0.0000037688552461677347 0.0000037598181583536206 0.0000037511161198173056 0.000003743139226252699 0.00000373627757335371 0.000003730952632544171
          0.000003727585875247915 0.0000037266813961779575 0.000003728743290047315 0.000003734331652022838 0.000003744006577271376 0.0000037583091321798096
          0.0000037777803831350176 0.000003802285706977379 0.000003831690480547274 0.0000024859964519336174 0.0000026558842226616856 0.000002801749497813287
          0.000002923841944006915 0.0000030224112278610673 0.0000031003840838488214 0.0000031606872464432576 0.000003206021910020183 0.0000032390892689554062
          0.0000032620611465690485 0.0000032771093661812356 0.000003285760630594463 0.0000032895416426112275 0.000003289489779931217 0.000003286642420254112
          0.0000032816923430750816 0.0000032753323278892883 0.000003268042942734286 0.0000032603047556476265 0.0000032524870872965416 0.000003244959258348261
          0.000003238058726933421 0.000003232122951182659 0.0000032275165312723515 0.000003224604067378873 0.0000032238216341940873 0.0000032256053064098573
          0.000003230439602750519 0.000003238809041940411 0.000003251181681572356 0.0000032680255792391763 0.0000032892242771575423 0.000003314661317544127
          0.0000021019684108850553 0.0000022456125127058684 0.0000023689450300857896 0.0000024721770620170375 0.0000025555197074918305 0.0000026214475892735037
          0.000002672435330125393 0.000002710766853359301 0.000002738726082287029 0.000002758149344554731 0.000002770872967808562 0.000002778187815139323
          0.000002781384749637816 0.0000027813408985232684 0.0000027789333890149057 0.0000027747479824533834 0.0000027693704401793563 0.0000027632070937599625
          0.000002756664274762341 0.000002750054252488163 0.000002743689296239101 0.000002737854734793497 0.0000027328358969296954 0.0000027289410606634395
          0.00000272647850401047 0.000002725816938368733 0.0000027273250751361747 0.000002731412586278436 0.0000027384891437611546 0.0000027489505012765005
          0.000002763192412516641 0.000002781116409689469 0.0000028026240250028798 0.0000017243511536832844 0.000001842189686083167 0.0000019433655969707388
          0.0000020280520615412415 0.0000020964222549899134 0.000002150506235710846 0.0000021923340620981307 0.0000022237793521267765 0.0000022467157237717978
          0.0000022626496096126547 0.0000022730874422288144 0.0000022790881819968148 0.000002281710789293194 0.0000022816748160030195 0.0000022796998140113574
          0.0000022762663130151896 0.0000022718548427114946 0.0000022667987374657885 0.000002261431331643588 0.000002256008795569721 0.0000022507872995690197
          0.000002246000913290468 0.0000022418837063830517 0.000002238688574917591 0.0000022366684149649045 0.000002236125699160227 0.000002237362900138795
          0.000002240716092564209 0.0000022465213511000715 0.0000022551033325452966 0.0000022667866936987996 0.0000022814906564432948 0.000002299134442661498
          0.0000013555519080722325 0.0000014481874754245998 0.0000015277241746403146 0.0000015942981427036986 0.0000016480455165990739 0.000001690562171693023
          0.0000017234439833521288 0.0000017481638455490337 0.0000017661946522563795 0.0000017787206446034118 0.0000017869260637193764 0.000001791643382593262
          0.0000017937050742140588 0.0000017936767947873912 0.0000017921242005188817 0.0000017894250468014687 0.00000178595708902809 0.000001781982368972682
          0.000001777762928409182 0.0000017735001486930468 0.0000017693954111797354 0.0000017656327233775938 0.0000017623960927949687 0.000001759884326821301
          0.0000017582962328460333 0.000001757869591530579 0.0000017588421835363538 0.000001761478204848341 0.0000017660418514515264 0.0000017727883434861482
          0.0000017819729010924432 0.0000017935320227436377 0.0000018074022069129569 9.97580874149765e-7 0.0000010657534536796872 0.0000011242862840783402
          0.0000011732795515885402 0.0000012128334424531027 0.0000012441223969380113 0.0000012683208553092506 0.0000012865127530827347 0.0000012997820257743782
          0.000001309000182836446 0.0000013150387337212038 0.000001318510313863051 0.0000013200275586963865 0.0000013200067472354632 0.0000013188641584945332
          0.0000013168777910901364 0.0000013143256436388126 0.0000013114005585247924 0.0000013082953781323072 0.000001305158303491074 0.0000013021375356308116
          0.0000012993684897797628 0.0000012969865811661713 0.0000012951381165807759 0.0000012939694028143157 0.0000012936554279573696 0.000001294371180100517
          0.000001296311086959938 0.0000012996695762518106 0.000001304634470168016 0.000001311393590900434 0.0000013199002062595605 0.000001330107584055893
          6.515266403901769e-7 6.960506011650354e-7 7.342787782803344e-7 7.662766040314814e-7 7.921095107138846e-7 8.125445330018753e-7
          8.283487055697853e-7 8.40229953843437e-7 8.488962032486533e-7 8.54916642349727e-7 8.588604597109507e-7 8.611277715702317e-7
          8.621186941654764e-7 8.621051020631031e-7 8.613588698295303e-7 8.600615601925181e-7 8.583947358798263e-7 8.564843435229318e-7
          8.544563297533115e-7 8.524074856397371e-7 8.504346022509809e-7 8.48626120164646e-7 8.470704799583363e-7 8.458632355608672e-7
          8.45099940901053e-7 8.448948818535696e-7 8.453623442930925e-7 8.466293102418291e-7 8.488227617219861e-7 8.520653666443248e-7
          8.564797929196062e-7 8.620355194469751e-7 8.687020251255758e-7 3.1839438707544804e-7 3.4015279006550555e-7 3.5883450815304497e-7
          3.7447151742883366e-7 3.870957939836394e-7 3.970821797958122e-7 4.0480551684370254e-7 4.1061176102235964e-7 4.1484686822683257e-7
          4.1778899507090067e-7 4.1971629816834284e-7 4.208243102210577e-7 4.2130856393094356e-7 4.213019216102886e-7 4.2093724557138065e-7
          4.203032636571865e-7 4.1948870371067257e-7 4.1855511455894293e-7 4.175640450291017e-7 4.1656279592377174e-7 4.155986680455759e-7
          4.1471488139773915e-7 4.1395465598348585e-7 4.1336468802781694e-7 4.1299167375573304e-7 4.128914635020556e-7 4.13119907601606e-7
          4.1373906086629143e-7 4.1481097810801904e-7 4.163956058766888e-7 4.185528907222009e-7 4.2126791729561924e-7 4.2452577024800814e-7
          0 0 0 0 0 0
          0 0 0 0 0 0
          0 0 0 0 0 0
          0 0 0 0 0 0
          0 0 0 0 0 0
          0 0 0
        </DataArray>
        <DataArray type="Float64" Name="displacement_y" format="ascii" RangeMin="0" RangeMax="0.000009762390766498148">
          0 0 0 0 0 0
          0 0 0 0 0 0
          0 0 0 0 0 0
          0 0 0 0 0 0
          0 0 0 0 0 0
          0 0 0 3.183943870755984e-7 3.4015279006564685e-7 3.588345081531759e-7
          3.7447151742895436e-7 3.870957939837508e-7 3.970821797959144e-7 4.048055168437945e-7 4.1061176102244116e-7 4.1484686822690457e-7
          4.177889950709633e-7 4.1971629816839636e-7 4.2082431022110207e-7 4.2130856393097903e-7 4.2130192161031516e-7 4.2093724557139865e-7
          4.2030326365719566e-7 4.1948870371067236e-7 4.1855511455893324e-7 4.175640450290828e-7 4.1656279592374395e-7 4.155986680455396e-7
          4.147148813976937e-7 4.139546559834301e-7 4.1336468802775055e-7 4.1299167375565617e-7 4.128914635019682e-7 4.1311990760150776e-7
          4.1373906086618217e-7 4.1481097810789886e-7 4.1639560587655796e-7 4.185528907220598e-7 4.212679172954689e-7 4.245257702478495e-7
          6.515266403905091e-7 6.960506011653423e-7 7.342787782806184e-7 7.662766040317436e-7 7.921095107141243e-7 8.125445330020925e-7
          8.283487055699811e-7 8.402299538436119e-7 8.488962032488069e-7 8.549166423498601e-7 8.588604597110658e-7 8.61127771570329e-7
          8.621186941655539e-7 8.621051020631598e-7 8.613588698295667e-7 8.600615601925343e-7 8.583947358798233e-7 8.564843435229101e-7
          8.54456329753272e-7 8.5240748563968e-7 8.504346022509054e-7 8.486261201645517e-7 8.470704799582224e-7 8.458632355607331e-7
          8.450999409008992e-7 8.448948818533958e-7 8.453623442928979e-7 8.46629310241613e-7 8.488227617217481e-7 8.520653666440648e-7
          8.564797929193239e-7 8.620355194466705e-7 8.687020251252493e-7 9.975808741502967e-7 0.0000010657534536801775 0.0000011242862840787918
          0.0000011732795515889548 0.0000012128334424534807 0.0000012441223969383543 0.0000012683208553095596 0.0000012865127530830108 0.0000012997820257746224
          0.0000013090001828366594 0.000001315038733721387 0.0000013185103138632039 0.0000013200275586965104 0.000001320006747235558 0.0000013188641584945995
          0.0000013168777910901743 0.0000013143256436388238 0.0000013114005585247771 0.0000013082953781322644 0.0000013051583034910032 0.0000013021375356307116
          0.000001299368489779634 0.0000012969865811660144 0.0000012951381165805904 0.000001293969402814098 0.0000012936554279571193 0.000001294371180100235
          0.0000012963110869596237 0.0000012996695762514646 0.0000013046344701676372 0.000001311393590900021 0.000001319900206259113 0.000001330107584055411
          0.0000013555519080729586 0.0000014481874754252721 0.0000015277241746409348 0.0000015942981427042689 0.0000016480455165995963 0.0000016905621716934992
          0.0000017234439833525598 0.0000017481638455494208 0.0000017661946522567266 0.000001778720644603719 0.0000017869260637196415 0.000001791643382593486
          0.0000017937050742142458 0.0000017936767947875416 0.0000017921242005189966 0.000001789425046801548 0.0000017859570890281353 0.0000017819823689726924
          0.0000017777629284091548 0.0000017735001486929815 0.000001769395411179631 0.000001765632723377451 0.0000017623960927947884 0.000001759884326821083
          0.0000017582962328457733 0.000001757869591530276 0.0000017588421835360082 0.0000017614782048479542 0.0000017660418514510978 0.0000017727883434856766
          0.0000017819729010919275 0.000001793532022743076 0.0000018074022069123487 0.0000017243511536841844 0.000001842189686084006 0.0000019433655969715197
          0.000002028052061541966 0.000002096422254990583 0.000002150506235711462 0.0000021923340620986936 0.00000222377935212729 0.000002246715723772263
          0.000002262649609613073 0.000002273087442229184 0.0000022790881819971362 0.0000022817107892934713 0.000002281674816003253 0.0000022796998140115467
          0.0000022762663130153336 0.0000022718548427115937 0.0000022667987374658427 0.0000022614313316435963 0.0000022560087955696838 0.000002250787299568935
          0.0000022460009132903358 0.000002241883706382872 0.0000022386885749173643 0.000002236668414964632 0.000002236125699159908 0.0000022373629001384277
          0.0000022407160925637914 0.0000022465213510996022 0.0000022551033325447744 0.000002266786693698224 0.0000022814906564426646 0.0000022991344426608085
          0.000002101968410886131 0.0000022456125127068784 0.000002368945030086738 0.0000024721770620179256 0.000002555519707492657 0.0000026214475892742715
          0.0000026724353301261042 0.0000027107668533599563 0.0000027387260822876305 0.00000275814934455528 0.000002770872967809057 0.000002778187815139765
          0.0000027813847496382065 0.0000027813408985236073 0.000002778933389015192 0.000002774747982453616 0.000002769370440179534 0.0000027632070937600866
          0.0000027566642747624127 0.0000027500542524881826 0.0000027436892962390672 0.0000027378547347934094 0.0000027328358969295523 0.0000027289410606632417
          0.000002726478504010223 0.0000027258169383684374 0.0000027273250751358253 0.0000027314125862780283 0.000002738489143760688 0.000002748950501275974
          0.000002763192412516054 0.00000278111640968882 0.000002802624025002165 0.0000024859964519348935 0.0000026558842226628897 0.0000028017494978144206
          0.000002923841944007981 0.0000030224112278620676 0.0000031003840838497582 0.000003160687246444132 0.0000032060219100209975 0.0000032390892689561605
          0.0000032620611465697457 0.0000032771093661818743 0.0000032857606305950433 0.0000032895416426117485 0.0000032894897799316777 0.000003286642420254516
          0.0000032816923430754284 0.0000032753323278895767 0.0000032680429427345156 0.0000032603047556477984 0.000003252487087296655 0.0000032449592583483153
          0.0000032380587269334163 0.0000032321229511825943 0.000003227516531272227 0.000003224604067378693 0.0000032238216341938506 0.00000322560530640956
          0.00000323043960275016 0.0000032388090419399896 0.0000032511816815718707 0.0000032680255792386257 0.000003289224277156926 0.0000033146613175434445
          0.000002873768396528627 0.0000030701556866595437 0.0000032387733922693068 0.0000033799101235997315 0.0000034938544908926342 0.0000035839897479845226
          0.0000036536991487119025 0.000003706105226505571 0.000003744330514796324 0.000003770885603337952 0.000003788281081884246 0.0000037982817921594516
          0.0000038026525758878126 0.0000038025926235373232 0.0000037993011255759764 0.0000037935789229773845 0.00000378622685671516 0.00000377780045503136
          0.000003768855246168042 0.000003759818158353865 0.000003751116119817487 0.0000037431392262528177 0.0000037362775733537663 0.000003730952632544165
          0.0000037275858752478446 0.0000037266813961778232 0.0000037287432900471155 0.0000037343316520225726 0.000003744006577271046 0.000003758309132179413
          0.0000037777803831345526 0.0000038022857069768467 0.000003831690480546676 0.0000032624302472195175 0.0000034853778710667936 0.0000036768002221730597
          0.000003837024943776349 0.000003966379679114697 0.000004068705249064137 0.000004147842474500703 0.000004207336194850178 0.0000042507312495383445
          0.000004280877772194972 0.000004300625896449832 0.000004311979149459008 0.000004316941058378585 0.000004316872997792426 0.0000043131363422843915
          0.000004306640242299136 0.0000042982938482813154 0.00000428872782070526 0.000004278572820045298 0.0000042683135142963344 0.000004258434571453274
          0.000004249378845572365 0.000004241589190709857 0.000004235544080052075 0.000004231721986785345 0.000004230695181744434 0.0000042330359357641054
          0.0000042393800938957095 0.0000042503635011905964 0.000004266600400379121 0.0000042887050341916424 0.000004316524572404097 0.00000434990618479242
          0.000003648954925037404 0.000003898316832701005 0.0000041124184311729915 0.0000042916261820531784 0.00000443630654694138 0.000004550755397684629
          0.000004639268606129959 0.000004705810995522934 0.000004754347389109121 0.0000047880655973112045 0.000004810153430551873 0.000004822851788936158
          0.000004828401572569089 0.000004828325448332763 0.000004824146083109277 0.000004816880341242462 0.000004807545087076147 0.0000047968457001799925
          0.000004785487560123659 0.000004774012757169003 0.000004762963381577883 0.000004752834755661331 0.0000047441222017303715 0.000004737360881292672
          0.000004733085955855894 0.000004731937497489854 0.000004734555578264366 0.000004741651376581989 0.000004753936070845287 0.00000477209667774618
          0.000004796820213976595 0.0000048279357423649715 0.000004865272325739748 0.000004030209796448565 0.0000043056258604375155 0.000004542097501585156
          0.0000047400294706104625 0.000004899826518232416 0.00000502623336318771 0.0000051239947242130435 0.000005197489682391556 0.000005251097318806393
          0.000005288338516849834 0.000005312734159914164 0.000005326759284754197 0.000005332888928124756 0.000005332804850176636 0.00000532818881106063
          0.000005320163920468241 0.000005309853288090968 0.000005298035993887388 0.000005285491117816083 0.000005272817389521232 0.000005260613538647018
          0.000005249426640416711 0.000005239803770053579 0.000005232336004508467 0.000005227614420732218 0.0000052263459676401306 0.000005229237594147495
          0.0000052370747849270185 0.000005250643024651412 0.000005270701111787353 0.000005298007844801531 0.000005332374426441712 0.0000053736120594556575
          0.000004403008492050736 0.000004703900835088946 0.000004962246354723982 0.000005178487241547002 0.000005353065686149165 0.000005491165298800185
          0.0000055979696897697735 0.000005678263009802006 0.000005736829409640952 0.000005777515458140024 0.00000580416772415264 0.00000581949018796766
          0.000005826186829873954 0.000005826094974626202 0.000005821051946979083 0.000005812284745465905 0.000005801020368619977 0.000005788109962125235
          0.0000057744046716656195 0.000005760558610014639 0.000005747225889945801 0.000005735004191722795 0.000005724491195609301 0.000005716332653803213
          0.000005711174318502418 0.0000057097885321493 0.000005712947637186235 0.000005721509776454167 0.0000057363330927940364 0.0000057582465743383
          0.000005788079209219415 0.000005825624736238397 0.000005870676894196256 0.00000476416338798407 0.000005089736297283636 0.0000053692724981147615
          0.000005603250451563504 0.000005792148618715913 0.000005941575793265925 0.000006057140768907474 0.000006144020114311422 0.000006207390398148632
          0.000006251413702444127 0.00000628025210922293 0.00000629683139160524 0.0000063040773227112544 0.000006303977933075977 0.00000629852125323441
          0.000006289034925751868 0.00000627684659319367 0.0000062628772161059004 0.000006248047755034649 0.000006233065976075029 0.000006218639645322154
          0.000006205415467508731 0.000006194040147367465 0.0000061852124046452004 0.000006179630959088775 0.000006178131504200399 0.0000061815497334822784
          0.000006190814178576323 0.000006206853371124447 0.000006230564296657536 0.0000062628439407064764 0.000006303469123585294 0.0000063522166656080135
          0.000005110572431673041 0.00000545981820669489 0.0000057596798792029885 0.000006010670699864282 0.000006213303919345718 0.000006373596154646515
          0.0000064975640227658884 0.000006590760487988549 0.000006658738514599199 0.000006705962815480922 0.0000067368981035167945 0.0000067546828889197885
          0.000006762455681902868 0.000006762349065506974 0.000006756495622773045 0.0000067463195310310504 0.000006733244967610957 0.000006718259857399928
          0.000006702352125285129 0.000006686281000033331 0.000006670805710411302 0.000006656619983965572 0.000006644417548242669 0.000006634947927888343
          0.000006628960647548347 0.000006627352165178857 0.000006631018938736057 0.000006640957014707996 0.000006658162439582718 0.000006683597419974996
          0.000006718224162499598 0.000006761803259760598 0.00000681409530436206 0.0000054392462523791286 0.000005810952905272687 0.000006130099439291853
          0.0000063972321135502515 0.000006612897187161511 0.000006783498220960059 0.000006915438775780334 0.000007014628941065153 0.000007086978806257333
          0.000007137240221201865 0.000007170165035743738 0.00000718909360561456 0.000007197366286545939 0.000007197252813380383 0.000007191022920960395
          0.000007180192379057041 0.000007166276957441385 0.000007150328116945254 0.000007133397318400481 0.0000071162926184933874 0.000007099822073910296
          0.000007084724027568382 0.0000070717368223848235 0.000007061658186828388 0.0000070552858493678485 0.000007053573921434708 0.000007057476514460464
          0.000007068053733198499 0.0000070863656824021885 0.000007113436450623918 0.000007150290126416073 0.000007196671905488421 0.000007252326983550736
          0.000005747421781337514 0.000006140188501942217 0.000006477417164876554 0.000006759684979073896 0.00000698756915346762 0.000007167836060328849
          0.000007307252071928712 0.000007412062130161217 0.000007488511176920372 0.0000075416202912368964 0.00000757641055214151 0.000007596411572451591
          0.000007605152964984514 0.0000076050330626831896 0.000007598450198490529 0.000007587006022303135 0.000007572302184017607 0.000007555449717885142
          0.000007537559658156934 0.000007519485844204104 0.000007502082115397781 0.000007486128647513683 0.000007472405616327531 0.000007461755947819188
          0.0000074550225679685195 0.00000745321364602707 0.000007457337351246386 0.000007468513851544478 0.000007487863314839354 0.000007516467852250624
          0.000007555409574897897 0.000007604419241849676 0.00000766322761217447 0.000006032555642772265 0.000006444807811974601 0.000006798766639234304
          0.000007095037969248454 0.000007334227646714133 0.000007523437728654171 0.000007669770272091393 0.00000777978003512339 0.000007860021775847744
          0.000007915765672753524 0.00000795228190432979 0.000007973275190106156 0.000007982450249612234 0.000007982324398868752 0.000007975414953896431
          0.000007963403023632301 0.000007947969717013387 0.000007930281187524918 0.000007911503588652113 0.000007892533119371189 0.000007874265978658355
          0.000007857521047388767 0.000007843117206437575 0.000007831939199968287 0.000007824871772144417 0.000007822973108242541 0.000007827301393539239
          0.000007839032368314535 0.000007859341772848463 0.00000788936540259663 0.000007930239053014646 0.000007981680125928526 0.000008043406023164284
          0.000006292452308832871 0.000006722465269762158 0.00000709167347466134 0.000007400708869440049 0.000007650203400007914 0.000007847565096685272
          0.00000800020198979246 0.00000811495123180141 0.000008198649975184039 0.000008256795450097055 0.00000829488488669717 0.000008316782612532791
          0.000008326352955152336 0.000008326221682463249 0.000008319014562372973 0.00000830648512994005 0.000008290386920223017 0.00000827193632733825
          0.00000825234974540212 0.000008232561983747687 0.000008213507851708004 0.000008196041509469672 0.000008181017117219287 0.000008169357535976968
          0.000008161985626762837 0.0000081600051639606 0.000008164519921953963 0.000008176756294675736 0.00000819794067605874 0.000008229257794294506
          0.000008271892377574578 0.000008325549652731879 0.000008389934846599336 0.0000065252196215048 0.000006971139411189875 0.000007354005185102506
          0.00000767447226578577 0.000007933195975782748 0.000008137858379641641 0.000008296141541910653 0.000008415135531655934 0.00000850193041794363
          0.000008562226781774905 0.000008601725204150927 0.000008624432959931362 0.000008634357323975883 0.000008634221195311808 0.000008626747472966459
          0.000008613754557908067 0.000008597060851104884 0.000008577927742928426 0.000008557616623750225 0.000008537096882912154 0.000008517337909756083
          0.00000849922546114372 0.000008483645293936768 0.000008471554407178027 0.000008463909799910299 0.000008461856076798464 0.000008466537842507412
          0.000008479226857133418 0.000008501194880772763 0.000008533670466501758 0.00000857788216739671 0.000008633524306185975 0.00000870029120559791
          0.000006729397631017153 0.000007189270516588874 0.000007584116388668717 0.000007914611075232545 0.000008181430404256225 0.00000839249681666444
          0.000008555732753381875 0.000008678450135959837 0.00000876796088594964 0.000008830143958928225 0.000008870878310472544 0.000008894296605460058
          0.000008904531508768226 0.000008904391120557165 0.000008896683540986991 0.000008883284069875596 0.000008866068007040874 0.000008846336212510577
          0.000008825389546312461 0.000008804227730558448 0.000008783850487360448 0.000008765171289440083 0.000008749103609518978 0.00000873663439171013
          0.000008728750580126543 0.000008726632594794992 0.000008731460855742253 0.0000087445469171957 0.000008767202333382703 0.000008800694099537273
          0.000008846289210893415 0.000008903672425355539 0.000008972528500828053 0.000006903877723089947 0.000007375674211310039 0.000007780757663020553
          0.000008119821429092262 0.000008393558860395941 0.000008610097811222782 0.000008777566135863984 0.000008903465339666518 0.000008995296927977371
          0.000009059092286169821 0.000009100882799617148 0.000009124908285097753 0.000009135408559390017 0.000009135264531187806 0.000009127357109184982
          0.000009113610216048433 0.000009095947774445055 0.00000907570437315365 0.000009054214600953029 0.000009032504100790178 0.000009011598515612087
          0.000008992435002697796 0.000008975950719326337 0.000008963158199137316 0.000008955069975770343 0.000008952897075230058 0.000008957850523521106
          0.00000897127588090155 0.000008994518707629448 0.00000902887884964213 0.000009075656152876926 0.000009134527201628539 0.000009205168580191674
          0.000007048019482714472 0.000007529666315729796 0.000007943207252330098 0.00000828935011942681 0.000008568802743931369 0.000008789862676538428
          0.000008960827467942652 0.000009089355242745277 0.000009183104125547548 0.00000924823142725845 0.00000929089445878697 0.00000931542155740322
          0.000009326141060377338 0.000009325994025100052 0.000009317921508962106 0.000009303887603012525 0.000009285856398300342 0.000009265190347651581
          0.000009243251903892283 0.00000922108812372922 0.000009199746063869163 0.000009180182447913826 0.000009163353999464916 0.000009150294392220766
          0.000009142037299879704 0.000009139819032703467 0.000009144875900953788 0.000009158581558002631 0.000009182309657221966 0.000009217387183222224
          0.000009265141120613833 0.000009325241301296588 0.000009397357557170277 0.000007161540594092595 0.000007650945221182188 0.000008071146983116533
          0.000008422865107640713 0.000008706818822499812 0.000008931439325461824 0.00000910515781429474 0.000009235755761558472 0.000009331014639812941
          0.000009397190934604661 0.000009440541131480155 0.000009465463283416001 0.000009476355443388786 0.000009476206039842132 0.000009468003501219656
          0.000009453743553811927 0.000009435421923909526 0.000009414423009107419 0.00000939213120700057 0.000009369610439039303 0.00000934792462667392
          0.000009328045903271511 0.000009310946402199148 0.000009297676446341127 0.000009289286358581741 0.000009287032362197331 0.000009292170680464245
          0.000009306097091928446 0.000009330207375135905 0.00000936584988818617 0.00000941437298917879 0.00000947544119205865 0.000009548719010770631
          0.000007244612531766095 0.000007739694120418065 0.000008164770109359929 0.000008520568069184443 0.000008807815570484366 0.000009035041610645838
          0.000009210775187055007 0.000009342888035252912 0.000009439251890780607 0.000009506195812728049 0.000009550048860185193 0.000009575260102355926
          0.000009586278608444137 0.00000958612747185668 0.000009577829786000411 0.000009563404427052143 0.000009544870271188684 0.000009523627774643401
          0.00000950107739364965 0.00000947829539085937 0.000009456358028924498 0.000009436248717696753 0.00000941895086702785 0.000009405526983264014
          0.000009397039572751465 0.00000939475943061744 0.000009399957351989178 0.000009414045306067 0.000009438435262051225 0.000009474491218631371
          0.000009523577174496958 0.000009585353752045178 0.000009659481573673229 0.000007297732716642294 0.000007796444427043259 0.000008224637230724077
          0.000008583044033094786 0.000008872397739565422 0.00000910128988529289 0.000009278312005434093 0.000009411393554013331 0.000009508463985054905
          0.000009575898764656383 0.000009620073358915326 0.000009645469459260422 0.00000965656875712035 0.00000965641651234358 0.000009648057984778577
          0.000009633526853750735 0.000009614856798585452 0.000009593458544180387 0.000009570742815433195 0.000009547793766552577 0.000009525695551747242
          0.000009505438791594518 0.000009488014106671734 0.000009474491794015545 0.000009465942150662611 0.00000946364528968116 0.000009468881324139426
          0.000009483072576319372 0.000009507641368502947 0.000009543961700723752 0.00000959340757301538 0.000009655637119332645 0.000009730308473630354
          0.000007321794440783722 0.000007822150478822449 0.000008251755098682164 0.000008611343622272485 0.000008901651371503015 0.000009131298209116358
          0.00000930890399785511 0.000009442424336348027 0.000009539814823223869 0.000009607471945452356 0.00000965179219000321 0.000009677272025116897
          0.000009688407919033888 0.00000968825517228312 0.000009679869085393537 0.000009665290043037629 0.000009646558429887896 0.000009625089622214498
          0.000009602298996287602 0.00000957927428093566 0.000009557103204987123 0.000009536779655244595 0.000009519297518510686 0.00000950573062075261
          0.000009497152787937591 0.000009494848353859493 0.000009500101652312179 0.000009514339695188434 0.000009538989494381047 0.000009575429580208718
          0.000009625038482990142 0.000009687473209496294 0.000009762390766498148 0.0000073179546913262095 0.00000781804832896048 0.000008247427652396012
          0.000008606827597919596 0.000008896983101818015 0.000009126509506341921 0.000009304022153741967 0.000009437472470513213 0.000009534811883150731
          0.000009602433524131372 0.00000964673052593199 0.000009672196998722006 0.000009683327052670848 0.000009683174386024215 0.000009674792697027797
          0.000009660221300320502 0.00000964149951054124 0.000009620041961698106 0.000009597263287799194 0.000009574250647238172 0.000009552091198408716
          0.000009531778306891979 0.000009514305338269113 0.000009500745555363603 0.000009492172220998926 0.000009489868995429141 0.00000949511953890831
          0.000009509350114965106 0.000009533986987128215 0.000009570407962777272 0.000009619990849291922 0.000009682392833318161 0.000009757271101501989
          0.00000728767819849905 0.000007785702804270548 0.000008213305661391537 0.000008571218665505026 0.000008860173712254017 0.000009088750499729171
          0.000009265528726021153 0.000009398426920276348 0.000009495363611641135 0.000009562705482356255 0.000009606819214662436 0.000009632180325296928
          0.000009643264330996979 0.000009643112295976387 0.00000963476528444895 0.000009620254173819722 0.00000960160984149377 0.000009580241068729586
          0.000009557556636785664 0.000009534639206167305 0.000009512571437379816 0.00000949234258616394 0.000009474941908260426 0.000009461438226094372
          0.000009452900362090876 0.00000945060666563066 0.000009455835486094445 0.000009470007186146618 0.000009494542128451578 0.000009530812420001756
          0.00000958019016778959 0.000009642333976778962 0.00000971690245193374 0.000007232620682798785 0.000007726882773705959 0.000008151255143644431
          0.000008506464158875035 0.000008793236185658586 0.00000902008610351798 0.000009195528791976114 0.000009327422956662018 0.000009423627303204715
          0.000009490460414340819 0.00000953424087280694 0.000009559410383359844 0.00000957041065075629 0.000009570259764342637 0.000009561975813465226
          0.000009547574332499213 0.000009529070855819755 0.000009507863521515595 0.000009485350467675475 0.000009462606175437262 0.000009440705125938832
          0.000009420629101215047 0.000009403359883300769 0.00000938995821979866 0.000009381484858311395 0.000009379208490446786 0.000009384397807812643
          0.000009398462442407508 0.000009422812026229919 0.00000945880830017215 0.000009507813005126478 0.000009569487325254477 0.000009643492444717695
          0.000007154670561464062 0.000007643605704967564 0.000008063404369303537 0.000008414785092265088 0.00000869846641164533 0.000008922871437203287
          0.000009096423278697993 0.000009226895943958813 0.000009322063440815116 0.000009388176252995862 0.00000943148486423001 0.000009456383108462337
          0.000009467264819637618 0.00000946711555941395 0.000009458920889449435 0.000009444674621543681 0.000009426370567496306 0.000009405391796856112
          0.00000938312137917189 0.00000936062221527906 0.000009338957206013031 0.000009319097552177868 0.000009302014454577631 0.000009288757228526759
          0.000009280375189339684 0.000009278123355203597 0.00000928325674430569 0.000009297169796228069 0.00000932125695055283 0.000009356865271905865
          0.00000940534182491307 0.000009466351445349558 0.000009539558968990444 0.000007055765249182033 0.000007537941411590039 0.000007951936829269205
          0.00000829846010703249 0.000008578219849692857 0.000008799522726945081 0.000008970675408483941 0.000009099344435182075 0.000009193196347912128
          0.000009258395224461678 0.000009301105142618304 0.000009325659196490497 0.000009336390480186754 0.00000933624328331696 0.000009328161895491
          0.000009314112566292021 0.000009296061545303156 0.000009275372782684741 0.000009253410228597112 0.000009231222090461324 0.000009209856575698429
          0.000009190271459348439 0.000009173424516451343 0.000009160350556711855 0.000009152084389834667 0.000009149863684785266 0.000009154926110529132
          0.000009168646830081915 0.000009192401006459271 0.00000922751708262637 0.00000927532350154838 0.000009335489732270632 0.000009407685243838456
          0.000006937729666184124 0.0000074118395250285484 0.000007818909231791606 0.000008159635537066334 0.000008434715191445767 0.000008652315902716774
          0.000008820605378666233 0.000008947121906945682 0.000009039403775206659 0.000009103511942653826 0.000009145507368491834 0.000009169650658690729
          0.000009180202419220552 0.000009180057684801379 0.000009172111490153284 0.000009158297191557651 0.00000914054814529586 0.00000912020548406672
          0.00000909861034056903 0.000009076793386808537 0.000009055785294790994 0.000009036527816980357 0.000009019962705840588 0.00000900710745979088
          0.000008998979577250418 0.000008996796022275646 0.000009001773758922998 0.00000901526494516727 0.000009038621738983262 0.000009073150359872998
          0.000009120157027338504 0.000009179316739862897 0.000009250304495929298
        </DataArray>
        <DataArray type="Float64" Name="s_xx" format="ascii" RangeMin="-218728107.11225268" RangeMax="47861021.17424545">
          2487827.230094075 -3272063.0374922603 -4243934.963233478 -3548789.574589446 -4307627.899020027 -5467253.66086197
          -5974470.584452022 -6149411.190366678 -6312207.999182431 -6389310.653303985 -6307168.795136042 -6115328.127511628
          -5863334.353263767 -5557942.502112914 -5205907.603779515 -4820644.807822697 -4415569.263801587 -3997402.597425498
          -3572866.4344037436 -3146843.619659617 -2724216.9981164113 -2311068.0850493945 -1913478.395733835 -1530254.4552335108
          -1160202.788612201 -829734.1796837376 -565259.4122619514 -313772.3415433299 -22266.822724360216 72097.35062785634
          -267839.6150537816 -321994.04863189696 629717.7210308872 2086956.89312615 -3704034.9313666485 -4620994.379341207
          -3843740.134273041 -4552090.879637661 -5675806.174075584 -6144645.576227327 -6283505.700462376 -6417283.161150213
          -6470208.915514462 -6366513.920778733 -6155747.264565779 -5887458.034498345 -5567905.7709977385 -5203350.014485262
          -4807034.311777676 -4392202.20969174 -3965458.3503001058 -3533407.3756754324 -3100912.98468386 -2672838.8761915322
          -2255367.3694074573 -1854680.7835406438 -1469636.6558368485 -1099092.5235418284 -770010.8144052769 -509353.95617688634
          -263252.59475641337 22162.62395638575 105978.33051831585 -252718.84451381824 -320430.469632701 636341.8866689829
          748077.8245734524 -4917626.901866847 -5626888.268160634 -4621773.1746501895 -5144348.521677797 -6112063.568032625
          -6442367.572503844 -6462606.8302246565 -6500127.636328257 -6475112.165447737 -6307742.592216188 -6045671.181181556
          -5736550.196891789 -5384842.614412611 -4995011.408809746 -4579251.551468902 -4149758.013775791 -3712513.912330327
          -3273502.363732422 -2837339.723744432 -2408642.348128717 -1993671.036208854 -1598686.5873084206 -1222750.6727080196
          -864924.9636882544 -552865.8334925288 -314229.6553642479 -94510.77826215824 160796.44885499383 208268.4814685622
          -195518.2249400991 -303186.2450832419 632641.8463268821 -1593434.4350434884 -6966400.697729483 -7304621.601594316
          -5915910.3686862895 -6108080.221053714 -6791386.247054901 -6876083.535048164 -6689477.261987636 -6558872.604827447
          -6398451.001345612 -6122393.889320144 -5774423.186645651 -5398260.81121674 -4995182.280374773 -4566463.111461121
          -4122311.7103377027 -3672936.482866443 -3223159.42740578 -2777802.5423141504 -2340990.6907887496 -1916848.736026778
          -1511691.770848283 -1131834.8880733168 -776707.6067254608 -445739.4458282985 -167431.38493047596 29715.59641935978
          200598.07445909624 400112.62542662077 383667.2071487008 -93330.22254789663 -269165.9279572109 617873.8266267183
          -4999198.080632371 -9901395.150555538 -9695164.206247129 -7757608.984125953 -7465833.220610831 -7728384.532329866
          -7453810.535911164 -6966714.473307527 -6591699.5864717625 -6234878.892540103 -5802365.4086487815 -5331789.808044384
          -4860782.763973497 -4385955.786197816 -3903920.3844790393 -3421902.1652494236 -2947126.7349412246 -2482681.929012456
          -2031655.5829211315 -1597421.6824886857 -1183354.2135365538 -795796.5643943842 -441092.12339182594 -119212.07473582333
          169872.39736667988 396657.2326133772 531638.3707019624 629840.0340495125 746286.4450731045 636653.8146451073
          56618.353637890636 -217323.39065344745 591325.1290661914 -9521569.056405535 -13765898.635090154 -12833240.674055474
          -10173526.829772938 -9236688.758713983 -8935383.44652011 -8182267.878832817 -7296433.475279278 -6596971.655486669
          -5979762.149623733 -5340684.6878592195 -4709008.919589153 -4114004.494209562 -3546069.5338166035 -2995602.160506433
          -2465799.295808742 -1959857.8612532208 -1478529.9822068454 -1022567.7840365905 -594321.9823668244 -196143.29282191547
          165624.2262354678 484636.5164426572 760198.3144411191 991614.3568723198 1148212.7823461536 1199321.7294725156
          1199813.8030777024 1204561.607988012 971030.5738861274 256686.1304547334 -146765.64023936077 552381.3438706542
          -15186170.745803447 -18580841.371891253 -16735562.969576411 -13176479.620131008 -11429735.404827138 -10418124.822634725
          -9064442.372523703 -7679369.803336291 -6573588.863914721 -5630537.316038999 -4733652.921489131 -3901519.1125320084
          -3152719.321434525 -2469853.1009923904 -1835520.0040013173 -1247817.551849417 -704843.2659247996 -204397.8077010056
          255718.16134842494 674456.1592494159 1050767.7040278912 1378336.7770649965 1650847.359741878 1866693.4507474464
          2024269.0487706147 2091567.9943537763 2036584.1280393256 1913748.8459693766 1777493.5442860448 1388646.2283621544
          508034.9035705318 -57042.23932758353 500712.9904290474 -22000314.939684767 -24351846.20663603 -21406513.15855849
          -16769808.377196813 -14047224.444295658 -12177849.900917504 -10100773.28812483 -8115323.191098985 -6520828.195021317
          -5186068.03883682 -3979822.4614904854 -2907644.760140953 -1975088.231946864 -1155358.2463836793 -421660.1729268587
          234086.39329404352 819961.857149474 1341737.181039063 1805183.327362441 2210835.1660973895 2559227.5672216904
          2844101.96508203 3059199.7940250942 3201816.393179609 3269247.1016743015 3227986.2107396694 3044528.0116062085
          2772566.7249339474 2465796.5713829156 1890011.7402665901 811006.4208984495 51993.693810274126 436186.6395338445
          -29940185.83596059 -31058515.091272946 -26829513.76458226 -20940748.12606255 -17079784.445887823 -14208149.291245775
          -11287369.22932411 -8602502.470646728 -6438607.2257375335 -4647643.732323803 -3081572.228132807 -1730615.5992063626
          -584996.7315862845 393036.11040621926 1241234.662449941 1974914.6627782567 2609391.8496245425 3154616.7159324936
          3620539.7546458035 4009554.954620216 4324056.304711476 4557872.161620636 4704830.882048749 4760945.030235995
          4722227.170422553 4553513.177333487 4219638.92569386 3773265.8342745244 3267055.321846331 2473363.991659409
          1164548.4469638923 179973.0374495018 359002.1128059594 -38960517.5793175 -38662531.56426208 -32973558.01673072
          -25665446.628499493 -20510047.091344483 -16497355.868807478 -12617369.424430303 -9138034.970106136 -6327299.717728154
          -4018240.005727883 -2043932.172536847 -377055.1409585592 1009712.1662034651 2166579.0944532957 3143754.9892950035
          3964807.2486444954 4653303.270417682 5223957.238699942 5691483.337576656 6060399.907695472 6335225.289704048
          6509903.827971344 6578379.866866327 6535206.381658772 6374936.347618458 6060598.2174510015 5555220.443862016
          4910141.109396944 4176698.2966012247 3135373.3921476696 1566647.782709095 326170.43009983125 269590.2961342102
          -48982036.80741067 -47097163.74967164 -39784754.7265439 -30902467.207760245 -24307958.663053427 -19025458.725133747
          -14079197.026711484 -9717325.084127571 -6187994.413722926 -3303497.6279318267 -876127.3391885512 1141040.076753305
          2794928.2441401468 4149595.0833762707 5269098.514865972 6186201.208458501 6933665.834003113 7531512.467425256
          7999761.184650374 8345301.165978558 8575021.591709906 8683010.73340529 8663356.862625582 8508989.392808864
          8212837.737393216 7735989.332175895 7039531.612954158 6173201.347941359 5186735.305350849 3870226.487746519
          2013767.8976922624 489296.08880458685 168747.61469999945 -59903300.532983154 -56277173.81990294 -47194314.35783551
          -36598926.23958045 -28435213.557937376 -21767028.241035968 -15658222.217005918 -10334675.326016692 -6022267.408237758
          -2510815.825991827 409862.0583983831 2808151.3916669004 4752437.320547751 6321877.035298954 7595627.726178527
          8616497.573602805 9427294.757988123 10053833.595937122 10521928.40405244 10841061.577747362 11020715.512435172
          11055148.729644397 10938619.75090357 10662286.910385681 10217308.54226373 9562716.4074967 8657542.26704358
          7549661.196929473 6286948.273179492 4670491.445793923 2501378.664773053 667691.3290002242 57510.837358780045
          -71590851.12992887 -66090589.39706711 -55111921.36380128 -42685400.3079268 -32841579.50723906 -24688797.795240086
          -17335394.00543192 -10982784.650261825 -5832386.242177071 -1650120.9776318707 1798088.9469195653 4603685.191820395
          6858109.417413776 8656684.137922235 10094731.867568305 11225833.350240676 12103569.32982804 12759965.698289905
          13227048.347585764 13517083.408878269 13642337.01333008 13597261.941350846 13376310.973350223 12968745.519872332
          12363826.991461292 11518440.898371156 10389472.750855977 9022700.335796105 7463901.44007188 5526398.870725163
          3023515.434797819 859165.2965795023 -62737.3796401263 -83891985.27175902 -76409390.87595354 -63434346.67968599
          -49082545.035876945 -37469678.29744693 -27752817.16462598 -19089032.33764411 -11653416.562916756 -5621062.586859368
          -732886.8322215775 3270194.2782469797 6503971.022910632 9084233.68013371 11123324.812731696 12733586.983520078
          13979959.394912615 14927381.249323072 15614425.992918158 16079667.071864586 16338308.345028898 16405553.671277642
          16276071.33846843 15944529.63445889 15398192.01505545 14624321.936064545 13577595.134284714 12212687.34651449
          10573072.809652137 8702225.76059593 6426775.287889684 3573350.480077223 1061205.945646778 -190403.70691341732
          -96629229.98740773 -87084896.00865501 -72041730.74418809 -55698238.96090336 -42252925.425697155 -30915097.431256432
          -20894062.270268112 -12337119.480709033 -5391568.600556006 227432.36146964788 4804725.39664661 8481388.629952861
          11398500.18636637 13686031.729443315 15473954.922739873 16838989.053586744 17857853.40931462 18575910.3129329
          19038522.08745095 19263941.774955828 19270422.417534582 19052865.734789178 18606173.446321588 17915538.8754346
          16966155.345431007 15710456.221460408 14100874.868672395 12178410.818757998 9984063.603408253 7358639.690901511
          4142945.5495161368 1270888.34794513 -323624.745118499 -109612354.5404625 -97957812.18266638 -80805683.8133815
          -62433808.67331266 -47120026.003164664 -34128575.82672573 -22723698.167784076 -13023853.584329499 -5147502.634351772
          1216325.1681444873 6378600.309154669 10506249.098858131 13766197.847434238 16306392.990443457 18274780.963446267
          19760106.52653248 20851114.439791903 21600095.686752636 22059341.250942796 22250219.156757925 22194097.428593595
          21886125.491242625 21321452.769497838 20483161.215332087 19354332.78071823 17885158.61884173 16025829.882888056
          13814738.6356906 11290276.940082759 8308081.613298746 4723789.472572781 1485073.235459871 -460394.38048497844
          -122638120.11309016 -108858030.27537997 -89589120.8457751 -69183902.10338666 -51994884.32732585 -37343057.734898224
          -24549412.54340934 -13702981.665899208 -4892798.015407831 2218199.8650774504 7967073.432569303 12546752.089467254
          16150165.238170836 18943298.319511462 21092136.774320543 22697507.775769595 23860238.497030135 24639579.80702097
          25094782.57466091 25250346.766481023 25130772.349012394 24731466.739549536 24047837.355386984 23060846.604099836
          21751456.8932632 20067651.940745406 17957415.464414775 15456441.056575054 12600422.309529984 9260242.988475503
          5306786.858607554 1700402.688047185 -598560.7550845528 -135499610.04302463 -119612431.36709647 -98252551.87688196
          -75841322.63562423 -56800094.70656629 -40507518.044557944 -26342242.60444896 -14363754.393377585 -4631539.41848207
          3217103.249278827 9544874.538946355 14570448.51324563 18512499.23490178 21554828.8099744 23881239.34452309
          25604505.365257133 26837401.398885805 27646058.83226926 28096609.052267633 28216651.149469085 28033784.214461785
          27543679.80887478 26742009.49433713 25607641.6351745 24119444.59571254 22223264.33510965 19864946.812524237
          17077439.337615233 13893689.220041586 10200000.126140287 5882675.722248316 1913454.4251473104 -735925.3483810932
          -147991225.31897914 -130049066.13273625 -106657449.50739501 -82299616.98152593 -61458810.09369944 -43571332.866496585
          -28073489.32249834 -14995569.662588764 -4367864.087651897 4197105.950562309 11086819.000303911 16545024.086693903
          20815470.23485327 24099269.08610031 26597532.281753305 28434655.725956555 29735035.322854318 30571493.654084984
          31016853.301286936 31101730.14635007 30856740.071164284 30277820.74870825 29360909.851960663 28082840.672815636
          26420446.503167294 24317539.5611578 21717932.064929314 18651820.802439433 15149402.561645763 11112328.830120295
          6442251.095435018 2120824.4357209057 -870296.0708910623 -159913653.74186867 -140001310.85844138 -114669597.15394396
          -88455648.1966152 -65896599.554693945 -46485503.23194401 -29715411.232129175 -15588229.006761257 -4105862.007352061
          5142687.268355395 12568416.322618106 18439080.19065678 23022433.90769215 26536115.396843407 29197762.58122976
          31142881.547083847 32506978.38063829 33369270.87343612 33808976.817020364 33859598.49699979 33554638.198983185
          32890297.54113737 31862778.141629253 30446969.64695097 28617761.703594707 26317069.75788937 23486809.256163877
          20154465.130433034 16347522.312711667 11982667.527645279 6976587.499879392 2319209.2430144893 -999540.2293489368
          -171083122.13727754 -149315604.8972542 -122165322.42560507 -94214385.77880155 -70044906.01331504 -49204932.68693464
          -31242515.35744944 -16132414.142803483 -3849389.160940814 6039452.567682431 13967004.022610122 20223588.565639816
          25099529.55856907 28827953.312010776 31641986.136577815 33687562.17579377 35110615.5731822 35996364.92623487
          36430028.83244351 36447821.22718384 36085956.045831576 35340892.79290277 34209090.97291346 32663617.950492512
          30677541.09026878 28191046.05489997 25144318.507043757 21562210.459564094 17469573.925324906 12797593.354208805
          7477453.196098425 2505559.1143997363 -1121683.227481283 -181331019.20029676 -157851131.93663347 -129031239.35090785
          -99488707.40164964 -73840902.04738854 -51688330.67283947 -32631500.662717253 -16619663.646504227 -3602071.253682732
          6874107.88395869 15261705.134631496 21871835.568185836 27015614.254471865 30940384.318694953 33893488.886060454
          36030451.04956264 37506793.902195774 38413252.06861502 38840560.173475586 38827428.28186898 38412566.45888676
          37592682.38042724 36364483.72238875 34699364.40878954 32568718.36364782 29911195.620022207 26665446.210971296
          22853805.85178106 18498610.257737484 13544794.436135886 7937293.394271586 2677071.9904156104 -1234904.9171610156
          -190515736.32525915 -165489720.44687298 -135172223.7373707 -104205527.55859803 -77231913.27240081 -53901125.2866227
          -33862908.00910738 -17042980.693781774 -3367062.5945728007 7635380.14184376 16434881.368792137 23361285.812713094
          28744438.200047396 32844430.584437713 35921355.01952671 38139352.40365184 39662563.63515054 40586678.59148534
          41007387.15011874 40965645.673565455 40502410.52434015 39614624.65893438 38299231.033839665 36526122.064693466
          34265190.16713324 31453766.246041056 28029181.206298962 24011403.65240773 19420402.188868124 14213935.04663508
          8349760.45666353 2831389.655820246 -1337666.1190280097 -198516934.46891966 -172131042.5786568 -140507543.3741619
          -108302823.42613353 -80173269.30527042 -55814044.4888433 -34920312.45412298 -17396530.04529735 -3147154.1065542856
          8313580.244045737 17471437.888442248 24672687.81152036 30263598.998165175 34515377.65889756 37699230.00423834
          39986831.193479635 41549856.38591357 42488325.26135561 42902257.499621145 42834576.6942862 42328206.43892676
          41380309.27471098 39988047.74280696 38120004.31932086 35744761.48035882 32798566.021936942 29217664.74007136
          25019836.91431161 20222861.824207224 14796236.357127374 8709457.400441207 2966503.1483976133 -1428648.2047545232
          -205248072.94387344 -177703088.32435098 -144979295.0945992 -111736118.22114839 -82632982.6705287 -57406196.37970674
          -35792067.28564905 -17676279.32369437 -2944516.429181466 8901578.50719022 18360362.59472126 25792047.513928592
          31556844.945329163 35935320.38426617 39208039.326082796 41553046.524976686 43148386.73514545 44097737.336276025
          44504775.708055355 44414092.473458566 43870278.25546077 42870697.30917523 41412713.88971521 39463806.24459204
          36991452.621316984 33931063.342582814 30218048.731082283 25868198.46478155 20897302.221646756 15285391.787814785
          9012498.949422497 3080960.406890967 -1506887.1393587322 -210646301.23432985 -182153703.32035726 -148545584.8637753
          -114473239.89504316 -84587962.44461998 -58662570.77376153 -36469883.143723644 -17879467.93160008 -2760893.51448464
          9394031.208588734 19093497.338586126 26709048.556303702 32612228.5425376 37091119.8934212 40433805.20508786
          42823474.94859974 44443319.59501902 45399968.09598815 45800049.403149545 45689505.503028415 45114278.38214991
          44071914.398042925 42559959.90823633 40545004.934422225 37993639.498292744 34840693.529726274 31020996.958601184
          26548566.920733016 21437420.551937282 15676827.952109663 9256059.221145807 3173699.3543815324 -1571666.6528473436
          -214684018.94120207 -185460251.60352996 -151188310.81188533 -116500301.83311462 -86028329.9340643 -59576879.64285537
          -36950435.48760883 -18005197.049601436 -2597363.9101100005 9788282.2596397 19666959.78842191 27418874.728657875
          33424233.132768843 37976754.005921096 41370156.353280894 43791525.92763843 45427948.48178385 46388283.20014127
          46781389.26713478 46654237.36208647 46053798.16431845 44977779.456631884 43423889.02182791 41358049.2175224
          38746182.40133127 35522796.5597998 31622399.679473255 27057463.647019275 21840460.3491055 15968549.155262599
          9438889.435021222 3244239.5647740667 -1622642.079086174 -217356033.821044 -187618866.07033125 -152904500.27247542
          -117815045.17829435 -86952609.53860575 -60148384.433284715 -37233560.94220619 -18053756.41549635 -2454588.203281351
          10083379.096517038 20079580.885977067 27920201.61635593 33991425.738910794 38590720.49008624 42015553.1063269
          44455648.379396476 46100731.1010587 47061166.09374541 47447318.17988842 47306862.42999027 46687473.91455348
          45587000.523257084 44003290.145780094 41901818.95267562 39248063.114496745 35976465.60890702 32021469.413569987
          27394234.219752703 22105919.71872223 16160198.51994939 9560743.232905012 3292470.135976333 -1659704.4924494138
          -218688956.03047705 -188652299.49258235 -153712633.07621065 -118431697.74669367 -87371234.46936324 -60384202.695950344
          -37323561.878185846 -18027102.065506566 -2332613.3073492977 10280807.130281491 20334061.98138136 28216679.207382366
          34318186.769716546 38937948.510248795 42375328.270844 44821457.31655228 46467466.91242374 47424516.65403141
          47803766.13694834 47653276.531409055 47021109.00764814 45905230.22457995 44303606.84111888 42181486.05920409
          39504115.080774784 36206121.8695064 32222134.389074404 27562232.43014198 22236495.78337235 16253744.202096637
          9622797.439645965 3318805.5252200114 -1683081.5119815583 -218728107.11225268 -188598966.88855895 -153643811.00882554
          -118374187.58346987 -87301644.72290939 -60296074.31168195 -37227368.234325305 -17928170.50937378 -2231125.155361698
          10383486.106220648 20435381.55388298 28314884.17301265 34412316.94899702 39027151.16542704 42458858.10589366
          44898783.967693135 46538274.948121764 47488598.2745243 47861021.17424545 47703683.13162403 47064723.63099881
          45942207.10951351 44334198.004311845 42205924.464515224 39522614.63924511 36219321.34157283 32231097.38456977
          27567170.358879533 22236767.855145697 16252522.326924888 9627066.227773713 3323969.28867078 -1693198.7594053003
          -217545680.35051736 -187519764.9752019 -152747250.16169685 -117680363.34975493 -86771331.97912881 -59902364.73708499
          -36955670.310889885 -17761293.289026894 -2149278.2599793863 10396408.515786739 20391800.777805597 28225608.137710992
          34286540.20713673 38872486.22692411 42281335.43791442 44703523.389486544 46329485.63101932 47269947.96692408
          47635636.20161212 47474477.31890564 46834398.3026268 45713541.26176344 44110048.30530343 41989326.76938775
          39316783.99015738 36028122.83367497 32059046.16600319 27418146.86720993 22114017.817363072 16161833.056450851
          9576766.624461506 3309129.4684223123 -1690767.464639455 -215223029.26605758 -185483250.37434676 -151078337.33668688
          -116392815.61456393 -85811210.66946363 -59223693.66218226 -36520435.75351602 -17531273.012372863 -2086041.507660747
          10325277.848225012 20212704.142889116 27961083.63774003 33955262.59418623 38489971.094248496 41859939.2199476
          44253640.76183252 45859549.51045219 46787243.77931433 47146301.88192664 46984166.66493858 46348280.97499956
          45236845.55887441 43648061.16332795 41547699.38403216 38901531.81665907 35646120.399590254 31718027.071207292
          27125415.32710224 21876448.66286716 15987645.886600817 9475525.806402013 3275605.8265943765 -1676596.6484984558
          -211844193.71048117 -182560218.63565126 -148694260.75552794 -114555518.8561076 -84453191.72338653 -58281333.42826431
          -35933998.0416405 -17243041.73258266 -2040320.6701583648 10176014.687009174 19907813.88029676 27533973.70366695
          33433390.951082326 37896175.52389532 41212437.3234584 43567714.250382796 45147544.20527974 46059796.373980515
          46412339.94231637 46251881.81421753 45625128.89361422 44530322.66669634 42965704.619653806 40897582.07442652
          38292262.352954395 35087358.891097136 31220485.12471444 26699567.682482272 21532533.193076577 15736126.250105252
          9327091.447176196 3224763.0075116465 -1651524.8456661508
        </DataArray>
        <DataArray type="Float64" Name="s_xy" format="ascii" RangeMin="-29323203.580001894" RangeMax="125554398.02720648">
          0.007175839317484726 0.006471402607164903 0.005431869207616688 0.004266102028262541 0.003182963978524922 0.002209253746823578
          0.001371770021578254 0.000665433253371334 0.00008516389278520332 -0.0003854922524355769 -0.0007629893745464452 -0.0010611503662951204
          -0.0012937981204293202 -0.0014705117465588014 -0.0016008703542933198 -0.0016919058301803416 -0.0017506500607673335 -0.0017800097667198557
          -0.0017828916687034685 -0.001762062050756865 -0.0017202871969187379 -0.0016576617215632223 -0.001574280239064453 -0.0014710121475614867
          -0.0013487268451933805 -0.0012100029845606688 -0.0010574192182638865 -0.0008972356778487351 -0.0007357124948609158 -0.00058393461006727
          -0.0004529869642346389 -0.00035888759912612486 -0.00031765455650483 9826238.157963261 8219621.632326088 6622450.985270259
          5089200.177799386 3674343.170917082 2421307.4817422596 1373520.6273938345 508597.1533057204 -195848.39508816597
          -759451.7668681372 -1201848.7111145058 -1542681.5472186138 -1801592.5945718035 -1992191.8844755709 -2128089.4482314116
          -2218406.461690446 -2272264.100703797 -2294915.8808222422 -2291615.3175965617 -2264727.587991988 -2216617.8689737516
          -2147484.3523091255 -2057525.2297653803 -1945141.115277155 -1808732.62277909 -1646650.411292251 -1457245.1398377037
          -1238450.098740306 -988198.5783249153 -718131.0463430526 -439887.97054624086 -162604.16601824248 104585.55215717995
          20044737.914606728 16767369.029952852 13509268.980478449 10381560.278551972 7495365.436541868 4939273.106949077
          2801871.942274535 1037497.4101961746 -399515.02160806843 -1549220.7067471307 -2451674.9988299487 -3146946.6543669724
          -3675104.429868651 -4063911.6978489505 -4341131.830821835 -4525371.296127717 -4635236.561107005 -4681444.376222221
          -4674711.491935884 -4619862.679601097 -4521722.710570961 -4380695.880157485 -4197186.483672673 -3967931.9017905686
          -3689669.5151852183 -3359034.8005128843 -2972663.2344298316 -2526338.8949196376 -2015845.8599658788 -1464929.750381467
          -897336.1869793126 -331699.4600425912 213346.14014552266 30530113.876476888 25538357.651841052 20575949.764490463
          15812140.766465731 11416181.209807502 7523000.354316851 4267527.4597948585 1580210.9373065748 -608500.802082943
          -2359616.0146144824 -3734142.956528831 -4793110.298010844 -5597546.709245378 -6189738.5462854495 -6611972.165184069
          -6892587.051803795 -7059922.692007185 -7130301.754287377 -7120046.907137506 -7036506.753441603 -6887029.896083695
          -6672232.116720554 -6392729.197008959 -6043551.845757605 -5619730.771775187 -5116141.473995075 -4527659.451350632
          -3847863.438580012 -3070332.1704213712 -2231232.57060786 -1366731.5628726308 -505211.01016807236 324947.22455342696
          41172054.96679517 34440312.58022109 27748148.537687246 21323809.384903967 15395541.66758158 10145307.199735595
          5755067.79538153 2131028.133152326 -820607.1083190737 -3182111.951640878 -5035760.419421297 -6463854.063944305
          -7548694.437493877 -8347307.73338379 -8916720.144927822 -9295149.507618763 -9520813.656949406 -9615724.885672765
          -9601895.486541856 -9489235.579221433 -9287655.28337625 -8997985.024871651 -8621055.229572982 -8150164.450807388
          -7578611.241902017 -6899484.844500642 -6105874.500247035 -5189120.670975181 -4140563.818519069 -3008977.6414581644
          -1843135.8383719386 -681313.3933081621 438214.7096853913 51851884.91229068 43373961.432952635 34945882.72684682
          26855101.378715653 19389069.97330154 12776950.330323694 7247904.269501303 2683806.4212628375 -1033468.5839632241
          -4007536.2483680686 -6342012.074142885 -8140546.2342164945 -9506788.901517717 -10512558.585350323 -11229673.795018086
          -11706265.885857735 -11990466.213206016 -12109996.951032635 -12092580.273307314 -11950696.936327707 -11696827.696391473
          -11332018.387776697 -10857314.844761468 -10264277.29814061 -9544465.978708932 -8689177.51114988 -7689708.520146892
          -6535153.225633038 -5214605.847541391 -3789491.743620673 -2321236.2716196156 -858042.7594851768 551885.4648356808
          62416804.518833205 52211488.097931616 42066172.41718522 32326879.069056276 23339629.646007087 15380278.121846288
          8724678.470382538 3230637.0546050677 -1244039.762496868 -4824079.337632604 -7634209.027511471 -9799197.923806194
          -11443815.118189499 -12654512.277049124 -13517741.066772807 -14091439.697366247 -14433546.378835155 -14577431.73051969
          -14556466.371760022 -14385674.036551047 -14080078.458887665 -13640938.563759476 -13069513.27615609 -12355643.207936354
          -11489168.970959121 -10459613.860728607 -9256501.172749024 -7866703.053641476 -6277091.650027061 -4561607.852458794
          -2794192.551489692 -1032870.5942904053 664333.1719684177 72699546.18353893 60812973.678387254 48996286.62493562
          37652511.306505546 27184674.006418534 17914073.754067525 10162009.578845477 3762862.414533096 -1448986.805088908
          -5618813.415714319 -8891892.753036926 -11413548.763264136 -13329105.392603373 -14739256.6282214 -15744696.45728498
          -16412908.01364888 -16811374.431167852 -16978963.910490546 -16954544.652265623 -16755615.447913798 -16399675.088855792
          -15888189.899363516 -15222626.203708896 -14391150.924036147 -13381930.982489489 -12182763.709159441 -10781446.43413651
          -9162688.579981428 -7311199.569254932 -5313101.5485327635 -3254516.664390675 -1203028.960729139 773777.5185513627
          82526231.69625302 69032969.52175957 55619039.10759322 42741943.17810102 30859184.457629967 20335491.46977259
          11535592.738121405 4271482.722760061 -1644844.116227812 -6378299.757561286 -10093796.17995944 -12956300.543264816
          -15130780.007319957 -16731539.210208694 -17872882.79001485 -18631415.471698746 -19083741.980220683 -19273984.270953894
          -19246264.299271613 -19020446.141237807 -18616393.872916427 -18035772.01936972 -17280245.105659943 -16336380.595050925
          -15190745.950806536 -13829489.08694902 -12238757.917500647 -10401195.06125655 -8299443.137011876 -6031265.2890426675
          -3694424.661624969 -1365640.5296204826 878367.832109089 91720160.00240389 76723665.67369375 61815341.149936385
          47503657.76462086 34297086.85123617 22600989.92760641 12820728.511555662 4747352.093069644 -1828089.837865916
          -7088881.465727956 -11218306.974993413 -14399711.878778843 -16816441.6902008 -18595535.28500281 -19864031.538928397
          -20707069.41307937 -21209787.868557516 -21421224.317144558 -21390416.170622192 -21139440.484944757 -20690374.316066574
          -20045067.627349537 -19205370.382155567 -18156353.57678078 -16883088.207521327 -15370178.98107304 -13602230.604131777
          -11559951.976781636 -9224051.999106731 -6703185.229191597 -4106006.225120764 -1517781.2594584986 976223.3952309393
          100109447.14991528 83741281.67348616 67469350.55200247 51848633.01887699 37434108.30752249 24668214.78091871
          13993390.80204539 5181573.968494989 -1995298.122140041 -7737273.947521284 -12244401.985310325 -15716797.651300596
          -18354576.36128552 -20296396.744042702 -21680917.42834975 -22601064.705728117 -23149764.867699277 -23380540.587828204
          -23346914.53967988 -23072983.081854206 -22582842.572951086 -21878512.185302768 -20962011.0912415 -19817044.789021596
          -18427318.776897393 -16776029.613822227 -14846373.858749446 -12617295.929706264 -10067740.244719908 -7316299.5727079
          -4481566.682587762 -1656606.822028406 1065514.761301261 107527816.93612655 89946727.92769824 72469004.48960349
          55690751.25644853 40208072.8628395 26496193.502444983 15030337.368933575 5565542.044129575 -2143154.8901427174
          -8310626.022802752 -13151743.942769978 -16881453.137384016 -19714698.093984485 -21800412.405516848 -23287529.66492657
          -24275862.243051697 -24865222.510730296 -25113099.310512498 -25076981.48494842 -24782750.995332982 -24256289.802961107
          -23499766.706073876 -22515350.502912406 -21285539.226872496 -19792830.911349975 -18019176.93671693 -15946528.683345465
          -13552270.296006203 -10813785.919469753 -7858456.3545414 -4813662.402026423 -1779365.6859216576 1144472.16977606
          113826566.42974797 95215614.83657022 76714083.74769104 58952996.33203351 42563375.75852066 28048283.837501176
          15910782.379323684 5891559.591377788 -2268696.318946937 -8797444.71717547 -13922144.96883279 -17870332.549519304
          -20869542.934835423 -23077433.92900424 -24651663.33624885 -25697890.322573785 -26321774.0539836 -26584170.94644507
          -26545937.41592496 -26234471.533644777 -25677171.370826032 -24876332.769271355 -23834251.57078339 -22532400.580994163
          -20952252.60553571 -19074701.77525168 -16880642.220985726 -14346133.299088873 -11447234.365912162 -8318787.917079905
          -5095636.44821643 -1883597.1214162786 1211512.9012260057 118871300.42275912 99435521.17211363 80114011.88539429
          61565762.34889859 44449762.34892405 29291369.13259318 16615939.947028518 6152670.436362954 -2369243.7552706157
          -9187342.87371556 -14539167.164815247 -18662336.35764803 -21794470.181292262 -24100213.75153786 -25744212.184174772
          -26836807.404277626 -27488341.33692109 -27762367.522653524 -27722439.50202329 -27397169.614463232 -26815170.199406177
          -25978838.849164825 -24890573.15605188 -23531024.810118422 -21880845.501415525 -19920082.598641336 -17628783.470493983
          -14981946.436497863 -11954569.816177366 -8687472.254158605 -5321472.395067692 -1967077.1623735328 1265206.5204549648
          122556949.8176223 102518556.91857675 82597976.96669857 63474631.97455116 45827943.95469796 30199559.053368513
          17131123.416792337 6343436.298158318 -2442703.0493446602 -9472199.896256344 -14989959.51311648 -19240969.118108023
          -22470215.929413933 -24847449.946586777 -26542421.169179115 -27668892.71516805 -28340627.70253067 -28623150.17325248
          -28581984.169318948 -28246629.16651212 -27646584.640614033 -26784322.522189137 -25662314.741801914 -24260613.087873813
          -22559269.34882629 -20537712.254516777 -18175370.534802727 -15446467.32269842 -12325225.751218142 -8956830.600047555
          -5486466.648872318 -2028067.1299009768 1304434.7246579272 124799955.35480674 104394824.98151723 84109663.73741779
          64636328.24068801 46666675.1095075 30752263.557518393 17444652.798362814 6459532.225511377 -2487408.767565306
          -9645557.644206103 -15264301.867749881 -19593112.34896265 -22881459.998610422 -25302201.536750067 -27028193.683438472
          -28175281.619758416 -28859310.526792705 -29147003.65056386 -29105084.2370944 -28763591.653927866 -28152565.2686078
          -27274522.252331167 -26131979.776294947 -24704624.541921668 -22972143.250633847 -20913588.14223347 -18508011.45652252
          -15729164.564975234 -12550798.83906585 -9120756.192696162 -5586878.539767956 -2065184.2889821557 1328308.1509603297
          125554398.02720648 105025914.23569432 84618124.81264776 65027068.798866116 46948785.235148706 30938167.629659697
          17550109.490563236 6498581.492335656 -2502445.690546722 -9703867.122477747 -15356577.867851272 -19711556.94294535
          -23019783.36403805 -25455158.80737597 -27191584.949205764 -28345607.279739253 -29033771.28918831 -29323203.580001894
          -29281030.754628986 -28937473.77507506 -28322753.603345584 -27439402.627480716 -26289953.2355206 -24853969.3306126
          -23111014.81590406 -21040015.297464386 -18619896.38136297 -15824250.760447921 -12626671.127567323 -9175893.132909346
          -5620652.42666215 -2077668.7738541763 1336338.0604861325 124799955.35480481 104394824.98151578 84109663.73741643
          64636328.24068668 46666675.109506406 30752263.557517625 17444652.79836228 6459532.225511028 -2487408.767565477
          -9645557.644206164 -15264301.867749969 -19593112.348962802 -22881459.998610567 -25302201.536750067 -27028193.683438078
          -28175281.619757686 -28859310.526791986 -29147003.65056324 -29105084.237093713 -28763591.653927144 -28152565.268607274
          -27274522.25233093 -26131979.776294954 -24704624.541921765 -22972143.250633754 -20913588.142233144 -18508011.45652215
          -15729164.564974943 -12550798.839065686 -9120756.192696055 -5586878.53976772 -2065184.2889819709 1328308.150959897
          122556949.81762022 102518556.91857527 82597976.9666971 63474631.97454962 45827943.954696596 30199559.053367455
          17131123.41679157 6343436.298157792 -2442703.0493450393 -9472199.896256652 -14989959.513116775 -19240969.1181083
          -22470215.929414112 -24847449.946586754 -26542421.16917876 -27668892.71516741 -28340627.702529993 -28623150.1732518
          -28581984.169318154 -28246629.1665113 -27646584.640613515 -26784322.52218901 -25662314.741802007 -24260613.087873906
          -22559269.348826095 -20537712.254516304 -18175370.534802273 -15446467.322698142 -12325225.751218066 -8956830.60004755
          -5486466.648872106 -2028067.1299006648 1304434.7246578438 118871300.4227595 99435521.17211413 80114011.88539462
          61565762.3488986 44449762.348923676 29291369.13259259 16615939.947027996 6152670.436362517 -2369243.75527124
          -9187342.87371636 -14539167.164815927 -18662336.357648436 -21794470.18129236 -24100213.751537878 -25744212.184175134
          -26836807.40427832 -27488341.336921606 -27762367.5226537 -27722439.502023306 -27397169.614463285 -26815170.19940649
          -25978838.84916533 -24890573.156052224 -23531024.810118444 -21880845.501415316 -19920082.598641064 -17628783.470493928
          -14981946.4364981 -11954569.816177772 -8687472.254159018 -5321472.395067903 -1967077.1623732103 1265206.5204562806
          113826566.4297504 95215614.8365723 76714083.7476929 58952996.33203501 42563375.75852144 28048283.837501246
          15910782.379323533 5891559.5913774995 -2268696.3189476626 -8797444.717176553 -13922144.968833776 -17870332.549519956
          -20869542.934835717 -23077433.929004565 -24651663.336250007 -25697890.32257572 -26321774.053985387 -26584170.946446378
          -26545937.415926058 -26234471.53364584 -25677171.37082717 -24876332.76927244 -23834251.570784066 -22532400.580994427
          -20952252.605535924 -19074701.77525208 -16880642.220986422 -14346133.299089821 -11447234.365913136 -8318787.917080754
          -5095636.448217066 -1883597.121416122 1211512.9012280225 107527816.93612793 89946727.92769948 72469004.48960486
          55690751.25644991 40208072.86284042 26496193.502445325 15030337.368933538 5565542.044129264 -2143154.890143294
          -8310626.02280357 -13151743.942770995 -16881453.137385126 -19714698.09398552 -21800412.40551791 -23287529.664928023
          -24275862.243053608 -24865222.51073239 -25113099.310514532 -25076981.484950177 -24782750.995334413 -24256289.80296233
          -23499766.706074983 -22515350.502913438 -21285539.226873577 -19792830.911351252 -18019176.93671842 -15946528.683347028
          -13552270.296007706 -10813785.91947107 -7858456.354542448 -4813662.402027153 -1779365.6859218965 1144472.1697766148
          100109447.14991537 83741281.67348643 67469350.55200303 51848633.01887774 37434108.307523094 24668214.78091895
          13993390.802045196 5181573.968494479 -1995298.1221405517 -7737273.947521829 -12244401.985311294 -15716797.651302066
          -18354576.361287266 -20296396.744044505 -21680917.4283514 -22601064.705729716 -23149764.86770125 -23380540.58783049
          -23346914.53968192 -23072983.081855793 -22582842.572952345 -21878512.185303934 -20962011.091242913 -19817044.7890234
          -18427318.77689951 -16776029.61382448 -14846373.858751545 -12617295.929708082 -10067740.244721454 -7316299.572709156
          -4481566.682588683 -1656606.8220292944 1065514.7612997496 91720160.00240535 76723665.67369516 61815341.14993764
          47503657.764621794 34297086.85123666 22600989.92760638 12820728.511555146 4747352.093068817 -1828089.8378667429
          -7088881.465728767 -11218306.9749945 -14399711.878780348 -16816441.69020272 -18595535.285005003 -19864031.538930576
          -20707069.413081452 -21209787.868559666 -21421224.317146793 -21390416.170624394 -21139440.48494685 -20690374.31606855
          -20045067.627351437 -19205370.382157445 -18156353.576782733 -16883088.20752344 -15370178.98107526 -13602230.604133902
          -11559951.976783598 -9224051.99910858 -6703185.229193344 -4106006.2251223787 -1517781.2594602436 976223.3952285021
          82526231.69625637 69032969.52176246 55619039.107595384 42741943.17810233 30859184.45763041 20335491.469772287
          11535592.738120608 4271482.722758961 -1644844.1162290752 -6378299.757562629 -10093796.179960838 -12956300.543266375
          -15130780.00732192 -16731539.210211115 -17872882.790017605 -18631415.47170159 -19083741.98022328 -19273984.270956285
          -19246264.299274217 -19020446.141240716 -18616393.87291944 -18035772.01937265 -17280245.105662603 -16336380.595053375
          -15190745.950809035 -13829489.086951613 -12238757.917503137 -10401195.06125891 -8299443.137014233 -6031265.289045079
          -3694424.661627422 -1365640.5296229862 878367.8321065045 72699546.18354237 60812973.67838985 48996286.62493745
          37652511.306506634 27184674.006418794 17914073.754067063 10162009.578844564 3762862.41453187 -1448986.8050904463
          -5618813.415716094 -8891892.753038788 -11413548.763266128 -13329105.392605714 -14739256.628224155 -15744696.457288062
          -16412908.013652116 -16811374.431170996 -16978963.91049366 -16954544.652269077 -16755615.447917609 -16399675.088859629
          -15888189.899367293 -15222626.203712745 -14391150.924040169 -13381930.98249375 -12182763.70916373 -10781446.434140334
          -9162688.579984717 -7311199.5692580305 -5313101.548535843 -3254516.6643937123 -1203028.960732065 773777.518548676
          62416804.51883614 52211488.0979334 42066172.41718633 32326879.069056906 23339629.64600711 15380278.121845722
          8724678.470381515 3230637.0546036647 -1244039.7624986588 -4824079.337634738 -7634209.027513861 -9799197.923808835
          -11443815.118192477 -12654512.277052414 -13517741.066776277 -14091439.697369847 -14433546.3788389 -14577431.73052364
          -14556466.371764258 -14385674.03655547 -14080078.45889199 -13640938.563763794 -13069513.276160847 -12355643.207941681
          -11489168.9709648 -10459613.860734222 -9256501.172753956 -7866703.053645643 -6277091.650030929 -4561607.852462547
          -2794192.551493221 -1032870.5942936492 664333.171965476 51851884.91229405 43373961.432954535 34945882.72684786
          26855101.378716122 19389069.97330144 12776950.330323018 7247904.269500058 2683806.421261089 -1033468.5839653555
          -4007536.248370535 -6342012.074145717 -8140546.234219708 -9506788.901521314 -10512558.585354244 -11229673.795022197
          -11706265.88586196 -11990466.213210316 -12109996.951037 -12092580.273311753 -11950696.936332187 -11696827.696395924
          -11332018.387781203 -10857314.844766263 -10264277.29814569 -9544465.978714079 -8689177.511154884 -7689708.520151569
          -6535153.225637426 -5214605.847545756 -3789491.7436250127 -2321236.2716236473 -858042.7594888043 551885.4648323753
          41172054.96679922 34440312.58022349 27748148.53768857 21323809.384904556 15395541.667581553 10145307.199734986
          5755067.795380283 2131028.1331505124 -820607.1083212539 -3182111.951643369 -5035760.419424191 -6463854.063947629
          -7548694.43749759 -8347307.733387825 -8916720.144932088 -9295149.507623145 -9520813.656953758 -9615724.885677015
          -9601895.486545997 -9489235.579225512 -9287655.283380374 -8997985.024875827 -8621055.229577111 -8150164.450811382
          -7578611.241905799 -6899484.844504284 -6105874.500250768 -5189120.670979122 -4140563.818523219 -3008977.6414623703
          -1843135.8383758862 -681313.393311745 438214.70968207845 30530113.876480922 25538357.65184356 20575949.764491983
          15812140.7664666 11416181.209807813 7523000.35431665 4267527.4597941395 1580210.9373053862 -608500.802084507
          -2359616.0146163916 -3734142.956531121 -4793110.298013493 -5597546.709248307 -6189738.546288585 -6611972.16518735
          -6892587.051807189 -7059922.6920107 -7130301.754290942 -7120046.907140978 -7036506.75344494 -6887029.896086962
          -6672232.116723765 -6392729.197012057 -6043551.8457605755 -5619730.771778053 -5116141.473997902 -4527659.451353531
          -3847863.438583 -3070332.170424368 -2231232.5706108008 -1366731.5628754597 -505211.01017078257 324947.22455079603
          20044737.91461017 16767369.02995528 13509268.980480276 10381560.278553378 7495365.436542808 4939273.106949583
          2801871.9422747223 1037497.4101960988 -399515.02160841273 -1549220.706747734 -2451674.9988307864 -3146946.654368037
          -3675104.429869952 -4063911.6978504467 -4341131.830823435 -4525371.296129443 -4635236.561108989 -4681444.376224415
          -4674711.491938064 -4619862.679603134 -4521722.710572822 -4380695.880159216 -4197186.483674404 -3967931.901792361
          -3689669.5151870614 -3359034.800514747 -2972663.2344316635 -2526338.894921372 -2015845.859967438 -1464929.7503828793
          -897336.186980717 -331699.4600441189 213346.1401437471 9826238.157964867 8219621.632327754 6622450.98527188
          5089200.177800857 3674343.170918301 2421307.4817432277 1373520.6273946539 508597.15330646804 -195848.39508744006
          -759451.7668674174 -1201848.7111138105 -1542681.5472179858 -1801592.5945713085 -1992191.8844752668 -2128089.4482313483
          -2218406.4616905875 -2272264.1007040185 -2294915.88082251 -2291615.3175969305 -2264727.5879924353 -2216617.8689741767
          -2147484.352309508 -2057525.2297657777 -1945141.115277561 -1808732.6227794287 -1646650.41129256 -1457245.1398381302
          -1238450.0987408506 -988198.5783254321 -718131.0463435235 -439887.97054677416 -162604.1660189837 104585.55215604798
          0.007169941184171186 0.006467549519444224 0.005428668824518366 0.004263183022413541 0.0031809760361496777 0.00220815286461767
          0.0013708185067084122 0.0006642656510317343 0.00008378698619746755 -0.00038712689571101654 -0.000764985402610346 -0.00106290176980452
          -0.0012939892325975377 -0.0014693107841523558 -0.001599929417631932 -0.0016915555494784614 -0.0017498995961341395 -0.001778942244580793
          -0.0017826641818002482 -0.0017629961326285446 -0.0017218688219017221 -0.0016592963648386619 -0.001575292876658246 -0.0014713624282633665
          -0.0013490090905569148 -0.0012104533454630859 -0.0010579156749060737 -0.000897585958550615 -0.000735654076061446 -0.0005837678097330415
          -0.0004535749418598762 -0.0003598884011314961 -0.00031752111623744716
        </DataArray>
        <DataArray type="Float64" Name="s_yy" format="ascii" RangeMin="-218728107.11222762" RangeMax="47861021.17424323">
          -211844193.71045694 -182560218.6356299 -148694260.7555103 -114555518.85609272 -84453191.72337164 -58281333.4282492
          -35933998.041627556 -17243041.732572164 -2040320.670148463 10176014.687018901 19907813.880305283 27533973.703673974
          33433390.951088253 37896175.52390039 41212437.32346265 43567714.25038601 45147544.20528145 46059796.37398034
          46412339.94231403 46251881.81421338 45625128.893609285 44530322.66669122 42965704.61964865 40897582.07442062
          38292262.35294615 35087358.8910863 31220485.124702103 26699567.682469007 21532533.193062432 15736126.250089994
          9327091.4471593 3224763.0074946955 -1651524.845679477 -215223029.26603365 -185483250.37432542 -151078337.33666623
          -116392815.6145437 -85811210.66944559 -59223693.66216671 -36520435.75350196 -17531273.01235997 -2086041.507649373
          10325277.848234572 20212704.142896622 27961083.63774567 33955262.59419063 38489971.09425185 41859939.219949685
          44253640.761833295 45859549.51045175 46787243.77931289 47146301.881924465 46984166.66493537 46348280.974994496
          45236845.558867194 43648061.1633188 41547699.384021595 38901531.81664782 35646120.39957854 31718027.0711948
          27125415.327088766 21876448.662852548 15987645.886585072 9475525.806385262 3275605.826576199 -1676596.6485190326
          -217545680.35048732 -187519764.97517797 -152747250.16167668 -117680363.34973675 -86771331.97911154 -59902364.737068586
          -36955670.31087545 -17761293.28901491 -2149278.259969721 10396408.515794713 20391800.777812995 28225608.137718044
          34286540.207142785 38872486.22692869 42281335.437917225 44703523.389487624 46329485.63101912 47269947.96692275
          47635636.20160956 47474477.31890177 46834398.30262158 45713541.26175695 44110048.30529581 41989326.7693792
          39316783.99014809 36028122.83366488 32059046.165991895 27418146.867197055 22114017.81734825 16161833.056434276
          9576766.624443935 3309129.468404349 -1690767.4646573563 -218728107.11222762 -188598966.8885371 -153643811.00880656
          -118374187.58345313 -87301644.72289379 -60296074.31166726 -37227368.234312244 -17928170.50936261 -2231125.155352252
          10383486.106228769 20435381.553890396 28314884.173019543 34412316.949003145 39027151.1654321 42458858.1058973
          44898783.96769516 46538274.94812212 47488598.274523154 47861021.17424323 47703683.131620884 47064723.630994625
          45942207.10950836 44334198.00430589 42205924.46450844 39522614.63923714 36219321.341563374 32231097.384558495
          27567170.358866524 22236767.85513147 16252522.32690953 9627066.227756916 3323969.2886528727 -1693198.7594233549
          -218688956.03046048 -188652299.4925644 -153712633.07619303 -118431697.74667756 -87371234.46934927 -60384202.69593832
          -37323561.87817484 -18027102.065496124 -2332613.307339516 10280807.130290331 20334061.98138875 28216679.207388327
          34318186.76972164 38937948.510253206 42375328.27084755 44821457.316554666 46467466.91242454 47424516.65403078
          47803766.136946954 47653276.53140712 47021109.007645264 45905230.22457605 44303606.841114044 42181486.05919827
          39504115.080767766 36206121.86949779 32222134.389063634 27562232.430129495 22236495.78335957 16253744.202083545
          9622797.439631129 3318805.525203067 -1683081.511999902 -217356033.82102907 -187618866.07031542 -152904500.2724597
          -117815045.1782797 -86952609.53859316 -60148384.43327412 -37233560.94219663 -18053756.41548723 -2454588.2032725182
          10083379.09652538 20079580.885984343 27920201.616361838 33991425.73891532 38590720.490089536 42015553.106329255
          44455648.37939816 46100731.10105993 47061166.093746014 47447318.17988786 47306862.42998853 46687473.914551064
          45587000.52325408 44003290.14577618 41901818.95267085 39248063.114491545 35976465.60890103 32021469.413562067
          27394234.219742846 22105919.718711577 16160198.519938119 9560743.23289237 3292470.1359624844 -1659704.4924633645
          -214684018.94118753 -185460251.60351673 -151188310.81187272 -116500301.83310258 -86028329.93405333 -59576879.64284566
          -36950435.48760026 -18005197.049593717 -2597363.9101026645 9788282.259646812 19666959.788428627 27418874.728663765
          33424233.132773213 37976754.00592387 41370156.353282616 43791525.92763969 45427948.48178535 46388283.20014264
          46781389.26713465 46654237.36208473 46053798.16431627 44977779.45662949 43423889.02182464 41358049.21751842
          38746182.4013275 35522796.55979604 31622399.679468192 27057463.64701241 21840460.349097133 15968549.155253144
          9438889.435011208 3244239.5647642454 -1622642.079094812 -210646301.2343213 -182153703.32034957 -148545584.8637674
          -114473239.89503467 -84587962.4446114 -58662570.77375332 -36469883.14371613 -17879467.93159329 -2760893.514478308
          9394031.208594691 19093497.338591576 26709048.556308545 32612228.542541802 37091119.893424764 40433805.20509085
          42823474.9486021 44443319.595020585 45399968.09598882 45800049.40314934 45689505.50302748 45114278.38214853
          44071914.398041 42559959.90823342 40545004.934418455 37993639.49828881 34840693.52972229 31020996.958596643
          26548566.920727596 21437420.551930863 15676827.952102603 9256059.221138982 3173699.3543750225 -1571666.6528542526
          -205248072.94387046 -177703088.3243477 -144979295.09459493 -111736118.22114302 -82632982.6705227 -57406196.379700534
          -35792067.285643 -17676279.32368871 -2944516.429176273 8901578.50719482 18360362.594725084 25792047.513931986
          31556844.945333008 35935320.38427053 39208039.32608693 41553046.52497987 43148386.735147 44097737.33627625
          44504775.70805555 44414092.47345896 43870278.25546054 42870697.30917403 41412713.889713176 39463806.24458919
          36991452.62131331 33931063.342578545 30218048.731077928 25868198.46477719 20897302.221642055 15285391.787809879
          9012498.949418016 3080960.406886339 -1506887.139365287 -198516934.46891522 -172131042.57865277 -140507543.37415808
          -108302823.42612971 -80173269.30526637 -55814044.48883906 -34920312.45411887 -17396530.045293573 -3147154.1065510046
          8313580.2440485135 17471437.888444643 24672687.81152281 30263598.99816844 34515377.658901356 37699230.00424143
          39986831.19348171 41549856.38591525 42488325.26135725 42902257.49962293 42834576.69428787 42328206.43892759
          41380309.27471095 39988047.74280678 38120004.31932053 35744761.48035762 32798566.02193489 29217664.740069166
          25019836.914309338 20222861.824204262 14796236.357123647 8709457.400437169 2966503.1483934154 -1428648.204759026
          -190515736.32525226 -165489720.4468681 -135172223.73736706 -104205527.55859509 -77231913.27239792 -53901125.28661976
          -33862908.0091047 -17042980.693779524 -3367062.594571033 7635380.141845269 16434881.368793866 23361285.812715285
          28744438.200050037 32844430.584440373 35921355.01952853 38139352.40365313 39662563.63515278 40586678.59148859
          41007387.15012166 40965645.67356745 40502410.524341434 39614624.65893534 38299231.03384095 36526122.06469506
          34265190.16713448 31453766.246041767 28029181.2062995 24011403.652407896 19420402.188867196 14213935.046632823
          8349760.456660203 2831389.6558168796 -1337666.1190295995 -181331019.20029303 -157851131.93663242 -129031239.35090704
          -99488707.40164793 -73840902.04738612 -51688330.67283672 -32631500.662714723 -16619663.646502143 -3602071.253680985
          6874107.883960379 15261705.134633582 21871835.56818827 27015614.254474074 30940384.318696935 33893488.8860628
          36030451.04956553 37506793.90219903 38413252.068618104 38840560.173477575 38827428.28186993 38412566.45888764
          37592682.380428374 36364483.72238976 34699364.40879044 32568718.363649007 29911195.62002381 26665446.210973162
          22853805.8517829 18498610.257738832 13544794.436136443 7937293.394271211 2677071.9904149603 -1234904.9171604787
          -171083122.1372778 -149315604.89725703 -122165322.42560674 -94214385.77880076 -70044906.01331288 -49204932.686932
          -31242515.35744702 -16132414.142801445 -3849389.1609387775 6039452.5676846765 13967004.022612622 20223588.565642316
          25099529.55857101 28827953.312012553 31641986.136580814 33687562.17579775 35110615.57318539 35996364.926236525
          36430028.83244398 36447821.227183774 36085956.04583192 35340892.79290349 34209090.97291357 32663617.95049206
          30677541.090268847 28191046.054900948 25144318.507045403 21562210.459566228 17469573.925327457 12797593.354211515
          7477453.196100827 2505559.11440156 -1121683.2274801175 -159913653.74186835 -140001310.8584429 -114669597.15394469
          -88455648.19661422 -65896599.55469224 -46485503.231942266 -29715411.232127927 -15588229.006760364 -4105862.0073507153
          5142687.268357339 12568416.322620122 18439080.190658636 23022433.90769387 26536115.396845113 29197762.581231616
          31142881.54708558 32506978.3806392 33369270.873436213 33808976.81702038 33859598.49700001 33554638.19898343
          32890297.54113753 31862778.141629208 30446969.646950763 28617761.70359449 26317069.757889338 23486809.256164253
          20154465.130433984 16347522.312713291 11982667.527647449 6976587.499881726 2319209.243016287 -999540.2293487048
          -147991225.31897685 -130049066.13273486 -106657449.5073938 -82299616.98152459 -61458810.093698144 -43571332.86649559
          -28073489.322498012 -14995569.66258884 -4367864.087651506 4197105.950563342 11086819.000305045 16545024.086695025
          20815470.23485469 24099269.086101584 26597532.281753257 28434655.725955226 29735035.32285303 30571493.654084407
          31016853.3012871 31101730.146350555 30856740.07116425 30277820.74870782 29360909.851960924 28082840.67281655
          26420446.503167674 24317539.56115742 21717932.064928908 18651820.802439295 15149402.56164576 11112328.830120435
          6442251.0954354545 2120824.4357212535 -870296.0708917378 -135499610.04302335 -119612431.36709508 -98252551.87688085
          -75841322.63562332 -56800094.706565216 -40507518.044556744 -26342242.604448095 -14363754.393377192 -4631539.418481965
          3217103.249278957 9544874.538946945 14570448.513246652 18512499.234902732 21554828.809974663 23881239.344521903
          25604505.365255043 26837401.398884665 27646058.832269344 28096609.05226767 28216651.149468504 28033784.214460712
          27543679.808873866 26742009.49433753 25607641.635176066 24119444.595713828 22223264.335110236 19864946.812524706
          17077439.337615527 13893689.220040986 10200000.126138877 5882675.722246993 1913454.4251465325 -735925.348381312
          -122638120.11309178 -108858030.27538078 -89589120.84577571 -69183902.10338716 -51994884.32732577 -37343057.7348975
          -24549412.54340832 -13702981.665898334 -4892798.015407657 2218199.865077253 7967073.432569943 12546752.089468658
          16150165.23817164 18943298.31951121 21092136.77431968 22697507.775768735 23860238.497030076 24639579.807021398
          25094782.574660383 25250346.766479384 25130772.349010758 24731466.739548646 24047837.35538717 23060846.604101013
          21751456.89326487 20067651.94074722 17957415.46441655 15456441.056576367 12600422.309530197 9260242.988474708
          5306786.858606564 1700402.6880465965 -598560.755084355 -109612354.54046628 -97957812.1826692 -80805683.81338398
          -62433808.67331508 -47120026.00316687 -34128575.826727465 -22723698.167784948 -13023853.584329607 -5147502.634351736
          1216325.168144707 6378600.309155756 10506249.098859856 13766197.84743545 16306392.990444032 18274780.963447094
          19760106.52653349 20851114.439792063 21600095.686751742 22059341.250941444 22250219.156756673 22194097.428592946
          21886125.4912425 21321452.769497573 20483161.215331923 19354332.780719306 17885158.61884397 16025829.882890161
          13814738.635692285 11290276.940084752 8308081.613301083 4723789.4725748105 1485073.2354609147 -460394.3804856159
          -96629229.98741062 -87084896.00865726 -72041730.74419066 -55698238.96090667 -42252925.425701074 -30915097.431260362
          -20894062.27027098 -12337119.480710536 -5391568.60055662 227432.36146964267 4804725.396647124 8481388.629953748
          11398500.18636744 13686031.729444627 15473954.922741743 16838989.053588472 17857853.409314513 18575910.31293112
          19038522.087449543 19263941.77495565 19270422.417535286 19052865.7347901 18606173.44632173 17915538.875434294
          16966155.34543192 15710456.221462598 14100874.868674302 12178410.818759512 9984063.60341071 7358639.690904909
          4142945.5495191254 1270888.347946734 -323624.7451188907 -83891985.27175753 -76409390.87595196 -63434346.67968606
          -49082545.03587911 -37469678.297450304 -27752817.164629597 -19089032.337646935 -11653416.562918633 -5621062.586860996
          -732886.8322233078 3270194.278245147 6503971.022909108 9084233.680133311 11123324.81273234 12733586.983520785
          13979959.394912895 14927381.249322928 15614425.992917838 16079667.071864586 16338308.345029479 16405553.67127883
          16276071.338470126 15944529.634460859 15398192.015057553 14624321.936066736 13577595.134286828 12212687.346516253
          10573072.809653223 8702225.760595955 6426775.287888684 3573350.480075644 1061205.9456460439 -190403.7069109057
          -71590851.12992619 -66090589.39706388 -55111921.363799915 -42685400.30792781 -32841579.507241067 -24688797.795242056
          -17335394.005433146 -10982784.650262505 -5832386.242178317 -1650120.97763409 1798088.9469166615 4603685.191817596
          6858109.417412371 8656684.13792209 10094731.86756785 11225833.350239778 12103569.329828002 12759965.698290935
          13227048.347587004 13517083.408879405 13642337.01333134 13597261.941352578 13376310.973352881 12968745.51987551
          12363826.991463713 11518440.898372494 10389472.750856861 9022700.335796079 7463901.440069422 5526398.870720508
          3023515.4347929447 859165.2965770278 -62737.379636951075 -59903300.53298727 -56277173.819904484 -47194314.35783669
          -36598926.23958211 -28435213.557938837 -21767028.241036616 -15658222.217005143 -10334675.326014854 -6022267.408236167
          -2510815.8259911546 409862.05839811673 2808151.391666123 4752437.320547343 6321877.035299169 7595627.726178999
          8616497.573603207 9427294.757988175 10053833.595937133 10521928.404053306 10841061.577749059 11020715.51243675
          11055148.72964536 10938619.750903886 10662286.910385527 10217308.542263485 9562716.407496301 8657542.267042518
          7549661.196927695 6286948.273177405 4670491.445792085 2501378.6647721683 667691.3289997131 57510.837356770884
          -48982036.807419606 -47097163.749677196 -39784754.72654743 -30902467.20776246 -24307958.663054463 -19025458.725133464
          -14079197.026709495 -9717325.08412419 -6187994.413719189 -3303497.6279284786 -876127.3391860459 1141040.0767548122
          2794928.244140801 4149595.08337674 5269098.514867446 6186201.208460545 6933665.834003658 7531512.467424464
          7999761.184650633 8345301.165980314 8575021.59171166 8683010.73340587 8663356.862624152 8508989.392806107
          8212837.737391342 7735989.332175148 7039531.612952809 6173201.347939593 5186735.305350767 3870226.487748693
          2013767.8976957332 489296.08880623925 168747.61469456487 -38960517.57932082 -38662531.56426444 -32973558.01673239
          -25665446.628500488 -20510047.091344524 -16497355.86880656 -12617369.424428646 -9138034.970103962 -6327299.717725697
          -4018240.005725475 -2043932.172534919 -377055.14095746685 1009712.1662034413 2166579.0944527946 3143754.9892955804
          3964807.248646269 4653303.2704193285 5223957.238701007 5691483.3375775535 6060399.907696519 6335225.289705461
          6509903.827972802 6578379.866866963 6535206.381658848 6374936.347619356 6060598.217452884 5555220.443863829
          4910141.109398406 4176698.2966028345 3135373.392149396 1566647.782710374 326170.430100229 269590.2961334217
          -29940185.83595841 -31058515.091271326 -26829513.764581636 -20940748.126062673 -17079784.445887737 -14208149.29124522
          -11287369.229323504 -8602502.470646221 -6438607.225737004 -4647643.732323245 -3081572.228132334 -1730615.599206207
          -584996.7315867975 393036.1104053434 1241234.662449664 1974914.662779145 2609391.849626766 3154616.715935359
          3620539.754647754 4009554.9546211273 4324056.304712656 4557872.161622768 4704830.882051888 4760945.030239836
          4722227.170426431 4553513.1773372 4219638.92569768 3773265.834278027 3267055.3218484 2473363.991659402
          1164548.4469616367 179973.03744734233 359002.1128087583 -22000314.939686984 -24351846.20663625 -21406513.158559088
          -16769808.377198458 -14047224.44429733 -12177849.900918538 -10100773.288124923 -8115323.191098304 -6520828.195020514
          -5186068.0388360955 -3979822.4614895945 -2907644.760139877 -1975088.2319458127 -1155358.2463827312 -421660.1729259638
          234086.39329506262 819961.8571509206 1341737.1810410172 1805183.3273647595 2210835.16609967 2559227.5672232714
          2844101.96508334 3059199.794027652 3201816.3931832407 3269247.101677138 3227986.210741154 3044528.0116070975
          2772566.724934788 2465796.5713840453 1890011.7402673364 811006.4208971306 51993.69380715387 436186.63953113195
          -15186170.745809272 -18580841.371894434 -16735562.96957937 -13176479.620134434 -11429735.404829975 -10418124.822636247
          -9064442.372523507 -7679369.803334838 -6573588.863913323 -5630537.316037923 -4733652.921487598 -3901519.112529715
          -3152719.3214316447 -2469853.1009893194 -1835520.0039986707 -1247817.5518475831 -704843.2659239414 -204397.8077003961
          255718.1613504019 674456.15925245 1050767.704029745 1378336.7770654596 1650847.359742765 1866693.4507488494
          2024269.0487708973 2091567.9943525612 2036584.1280374927 1913748.8459680362 1777493.5442865381 1388646.2283640676
          508034.9035716952 -57042.239329412456 500712.9904219108 -9521569.056404471 -13765898.635092236 -12833240.674058907
          -10173526.829776075 -9236688.758715315 -8935383.446519472 -8182267.878831382 -7296433.475277999 -6596971.655486289
          -5979762.149623937 -5340684.687858628 -4709008.919587257 -4114004.4942067177 -3546069.5338133173 -2995602.1605033586
          -2465799.2958062785 -1959857.8612515142 -1478529.9822056685 -1022567.7840353447 -594321.9823653819 -196143.29282061907
          165624.2262364095 484636.5164431689 760198.3144410965 991614.3568716288 1148212.7823453646 1199321.7294729028
          1199813.8030792822 1204561.6079895436 971030.5738873237 256686.13045626017 -146765.64023822141 552381.3438693032
          -4999198.080626135 -9901395.15055551 -9695164.206249017 -7757608.984127156 -7465833.220610424 -7728384.53232813
          -7453810.535909581 -6966714.4733068105 -6591699.586471862 -6234878.892540675 -5802365.408649191 -5331789.808044265
          -4860782.76397275 -4385955.786196522 -3903920.3844774603 -3421902.1652476555 -2947126.7349392027 -2482681.9290106073
          -2031655.582920374 -1597421.6824887465 -1183354.2135359703 -795796.5643931733 -441092.1233914843 -119212.07473658214
          169872.39736585438 396657.2326136842 531638.3707047665 629840.0340538848 746286.4450758226 636653.8146458049
          56618.35363905624 -217323.39065083727 591325.1290697092 -1593434.4350441382 -6966400.697729416 -7304621.601593428
          -5915910.368685187 -6108080.2210537065 -6791386.24705593 -6876083.5350488005 -6689477.261987145 -6558872.6048258
          -6398451.0013437625 -6122393.889320024 -5774423.186647504 -5398260.811219109 -4995182.280376803 -4566463.111462546
          -4122311.7103383746 -3672936.482866329 -3223159.4274051096 -2777802.542313413 -2340990.690788205 -1916848.7360264438
          -1511691.770848312 -1131834.888073989 -776707.6067266526 -445739.4458294799 -167431.38493102972 29715.59642013922
          200598.07446111285 400112.625428977 383667.2071508282 -93330.222546237 -269165.92795682454 617873.8266244591
          748077.8245696394 -4917626.90186486 -5626888.26815733 -4621773.174648353 -5144348.521678508 -6112063.568035166
          -6442367.572505698 -6462606.830224583 -6500127.636326307 -6475112.1654450735 -6307742.592215089 -6045671.18118271
          -5736550.1968942955 -5384842.614415667 -4995011.408812651 -4579251.551471299 -4149758.0137776583 -3712513.9123315588
          -3273502.363732826 -2837339.7237443356 -2408642.348128968 -1993671.036209515 -1598686.5873087712 -1222750.672708097
          -864924.9636888548 -552865.8334938558 -314229.65536591236 -94510.7782633305 160796.4488555836 208268.48147039712
          -195518.22493932297 -303186.2450851432 632641.8463213696 2086956.8931324654 -3704034.9313599216 -4620994.37933758
          -3843740.1342727384 -4552090.879637628 -5675806.174074846 -6144645.576226996 -6283505.700462906 -6417283.161151403
          -6470208.915515417 -6366513.920777873 -6155747.26456349 -5887458.034496984 -5567905.770998078 -5203350.014486492
          -4807034.311779298 -4392202.209693571 -3965458.350302206 -3533407.375678098 -3100912.9846865227 -2672838.876192758
          -2255367.369406858 -1854680.7835388763 -1469636.6558348427 -1099092.523540785 -770010.8144054493 -509353.95617758075
          -263252.59475744446 22162.62395469468 105978.33051602413 -252718.8445162688 -320430.46963404986 636341.8866708148
          2487827.2300875187 -3272063.0374946743 -4243934.963233383 -3548789.5745884553 -4307627.899019739 -5467253.66086232
          -5974470.584451283 -6149411.190364882 -6312207.999181369 -6389310.653304558 -6307168.795138262 -6115328.127514977
          -5863334.353267198 -5557942.502115806 -5205907.603781671 -4820644.807824184 -4415569.2638027305 -3997402.597425893
          -3572866.4344022544 -3146843.6196569246 -2724216.9981150124 -2311068.0850504045 -1913478.3957369872 -1530254.455237374
          -1160202.7886141774 -829734.1796837823 -565259.4122625734 -313772.34154531173 -22266.822726758604 72097.35062585771
          -267839.6150546911 -321994.0486346283 629717.7210198231
        </DataArray>
        <DataArray type="Float64" Name="s_zz" format="ascii" RangeMin="-354760362.1287686" RangeMax="6717405.810157493">
          -302806909.9441089 -269506237.5925472 -230600433.31772023 -191041945.77753055 -155783223.6298806 -124854916.8316443
          -98287675.33969559 -75904400.67734338 -57527994.36789657 -42600057.0635817 -30562189.416625336 -20980020.900809824
          -13419180.989917517 -7546668.923182607 -3029483.9398392914 346195.85437535314 2794192.3537242524 4437858.696042688
          5400548.019165941 5733664.505904594 5488612.339069232 4659107.041214388 3238864.134894593 1182210.871318372
          -1556525.498305752 -5055978.792844633 -9394782.831165124 -14573979.243981538 -20594609.66200819 -27420305.84193278
          -35014699.540443 -42327031.41858241 -48306542.13739458 -308273765.72646713 -274371885.25437784 -234763678.1809996
          -194491004.34213465 -158595723.5735853 -127109039.18461104 -100062154.48447137 -77274773.6723607 -58566600.9474734
          -43369155.65741553 -31113957.149793196 -21358792.801842585 -13661449.990799911 -7682915.98234743 -3084178.042167408
          352446.05023918673 2844638.5153713822 4517979.500399026 5498049.152491967 5837179.702153199 5587703.379885722
          4743222.248708165 3297338.3716391665 1203554.4271230183 -1584626.9063959867 -5147259.097516381 -9564395.6148367
          -14837096.89460909 -20966423.37308569 -27915350.217125118 -35646852.59358599 -43091200.824393734 -49178665.23147384
          -313569695.5825074 -279085404.27609086 -238796755.62836164 -197832225.13629138 -161320288.29685146 -129292684.47049706
          -101781153.01768331 -78602300.78056832 -59572734.60131016 -44114207.72349828 -31648473.390722033 -21725722.073530894
          -13896144.242474303 -7814903.15918079 -3137162.0852788887 358500.82956246 2893507.435674319 4595595.260205678
          5592501.830305524 5937458.40796371 5683696.255170091 4824707.522814614 3353984.36178723 1224230.6587417964
          -1611849.6996678244 -5235685.445203026 -9728705.3096252 -15091987.946744319 -21326612.01037035 -28394916.606359046
          -36259240.84056618 -43831477.81969422 -50023520.65044568 -318666617.6566758 -283621801.0571644 -242678280.125829
          -201047891.2212045 -163942470.70182535 -131394273.83592813 -103435555.8917493 -79879942.74534664 -60541060.27277791
          -44831262.59935555 -32162903.850391977 -22078863.062481437 -14122019.272218186 -7941930.588664502 -3188155.1208826634
          364328.0853657142 2940539.984319018 4670294.4141703695 5683405.213112891 6033968.891271242 5776081.958770084
          4903130.784594544 3408501.737729755 1244129.9296333764 -1638049.5282369298 -5320788.951860728 -9886840.657217579
          -15337300.831106659 -21673265.660327137 -28856462.09131555 -36848617.070508435 -44543937.05911335 -50836628.51833785
          -323535987.3547452 -287955670.1459409 -246386513.74154222 -204119993.71120796 -166447585.624597 -133402037.6250285
          -105016097.85582153 -81100544.31233801 -61466154.98993983 -45516304.5198367 -32654367.53323832 -22416238.052169483
          -14337810.098654985 -8063286.871546282 -3236871.5696948357 369895.18284629466 2985472.7620240445 4741658.620051457
          5770250.209141576 6126170.6585018 5864343.097339535 4978052.835374651 3460585.1823270204 1263140.796470384
          -1663079.6639215234 -5402093.00755444 -10037916.043134104 -15571661.70768952 -22004442.938249696 -29297401.85172668
          -37411680.56503251 -45224588.51517542 -51613435.13916359 -328149112.53262925 -292061474.7672694 -249899606.17772484
          -207030430.63037038 -168820871.99158067 -135304145.3427958 -106513465.76545572 -82256913.2403933 -62342567.74844125
          -46165296.96140395 -33119968.551085692 -22735859.102638222 -14542245.201213269 -8178256.930937024 -3283024.3759356877
          375169.3187837005 3028041.008214099 4809267.373367627 5852525.095256408 6213520.422370533 5947959.603200101
          5049032.20631662 3509927.800291606 1281151.2399004635 -1686792.6200814035 -5479118.538729218 -10181041.275118204
          -15793689.635047143 -22318192.424314823 -29715137.70623167 -37945113.544108115 -45869421.53562358 -52349363.27845749
          -332477502.3492955 -295913857.3119055 -253195860.43883845 -209761227.00718972 -171047672.29405445 -137088849.49821308
          -107918411.81844594 -83341907.75027397 -63164885.78921822 -46774231.72169053 -33556831.33410282 -23035752.221980203
          -14734061.98084786 -8286130.7073465865 -3326328.498117199 380117.9198984154 3067981.8197583677 4872703.119864093
          5929721.738617029 6295478.707414092 6026415.0576522015 5115630.526173573 3556224.84982043 1298050.0268641026
          -1709041.9444240783 -5551389.832544257 -10315332.405996576 -16002013.359882906 -22612576.38930512 -30107089.7017537
          -38445621.5047191 -46474453.606461026 -53039867.815239206 -336493244.21279866 -299487974.82784516 -256254019.8909813
          -212294772.6897818 -173113626.5118215 -138744641.02716506 -109221875.90587702 -84348531.01224434 -63927806.210554026
          -47339181.94881973 -33962138.675055146 -23313983.482468907 -14912023.464269662 -8386212.552698838 -3366504.6799978814
          384709.0739779319 3105037.6293733255 4931556.779939518 6001342.319427728 6371516.987353034 6099203.523230515
          5177418.32089349 3599177.774175279 1313728.1819279317 -1729684.1569965018 -5618440.831152423 -10439923.429094234
          -16195289.45974327 -22885696.432020877 -30470730.2477891 -38909976.80890999 -47035783.042609945 -53680495.87611536
          -340169401.5542169 -302759853.0491754 -259053571.18285707 -214614073.3017611 -175004876.7523863 -140260413.30352157
          -110415114.72395593 -85270030.85483305 -64626211.537296735 -47856358.10107082 -34333171.87587919 -23568686.579898246
          -15074935.931304384 -8477831.14352652 -3403283.4299935754 388911.9847529734 3138959.876171653 4985433.578289511
          6066906.425133597 6441125.216825599 6165836.753487208 5233981.133705789 3638498.4560687137 1328080.5399710243
          -1748580.7951922333 -5679821.773688757 -10553978.619786248 -16372221.488083089 -23135720.53317766 -30803620.136676054
          -39335064.68018434 -47549644.5899002 -54266950.2920213 -343480423.5762018 -305706751.08362645 -261575056.28747258
          -216703008.75477317 -176708278.05256122 -141625631.08954725 -111489834.77444184 -86100002.47687057 -65255247.56645907
          -48322165.59239322 -34667352.1038589 -23798091.22339646 -15221667.073546218 -8560349.69306098 -3436409.1206935532
          392697.44030006963 3169512.7866638997 5033959.049107991 6125958.358342402 6503819.590108086 6225851.620145995
          5284925.829842497 3673913.60058396 1341007.346130677 -1765600.51975706 -5735106.037610323 -10656705.247960182
          -16531579.695047576 -23360910.923113443 -31103445.647624608 -39717930.5840479 -48012466.70045905 -54795154.964933835
          -346402556.75499856 -308307527.6606644 -263800385.87901765 -218546592.86710474 -178211610.0819718 -142830500.20912263
          -112438325.93406118 -86832491.59891635 -65810401.5458171 -48733262.68449753 -34962281.924691685 -24000551.646661006
          -15351164.23066692 -8633176.206986558 -3465644.105897048 396038.2834593638 3196477.171940434 5076785.066977473
          6178074.476001796 6559150.3330122065 6278817.572007512 5329886.928201274 3705169.1368070547 1352415.8625463163
          -1780621.2298594802 -5783897.009368082 -10747366.344937235 -16672220.832704673 -23559652.06880813 -31368055.80958114
          -40055827.81135724 -48420929.05324145 -55261320.51433879 -348914246.8409021 -310542998.9224387 -265713145.47314265
          -220131226.98685592 -179503783.9574205 -143866133.30229133 -113253591.93892339 -87462095.23210894 -66287578.54664028
          -49086617.041589215 -35215785.87602749 -24174574.460441016 -15462472.205315683 -8695773.50214665 -3490772.742429081
          398909.8714729268 3219654.1371952784 5113595.7384686805 6222870.359023842 6606709.314728427 6324343.9214501
          5368532.786597271 3732034.5175783453 1362221.937726075 -1793532.129626787 -5825834.796755292 -10825293.175934494
          -16793107.50330733 -23730478.01501675 -31595498.804017175 -40346263.963263005 -48772018.74666261 -55662008.40812436
          -350996519.5003305 -312396277.2052626 -267298885.3020114 -221444940.1401509 -180575038.06925493 -144724706.7733228
          -113929473.9363538 -87984057.09321763 -66683173.778783984 -49379559.280388996 -35425948.88536881 -24318845.025243472
          -15554750.131533023 -8747668.692969676 -3511605.1982856593 401290.5111989622 3238868.5941641205 5144112.980724938
          6260007.600996538 6646137.255264537 6362086.7438145485 5400571.458411467 3754306.790820184 1370351.4925576397
          -1804235.684859225 -5860602.58460009 -10889897.049834639 -16893326.4795506 -23872098.272735696 -31784056.433605388
          -40587044.96637512 -49063083.50568365 -55994191.68616978 -352633327.6544382 -313853080.1803298 -268545384.8276356
          -222477608.1684014 -181417116.77467325 -145399604.0073183 -114460763.22720383 -88394354.67192139 -66994138.57906243
          -49609831.83520739 -35591151.32693665 -24432251.516831033 -15627286.867471367 -8788461.848030595 -3527980.9276816715
          403161.8561973836 3253972.466228549 5168101.611966314 6289200.002965168 6677130.302343474 6391755.173219592
          5425756.036918066 3771814.3147634333 1376741.8764310032 -1812649.408403915 -5887932.434228037 -10940680.095528077
          -16972105.421776816 -23983421.442447037 -31932275.574967097 -40776315.23676535 -49291880.233529836 -56255310.37094863
          -353811854.0490918 -314902000.1491146 -269442883.16192 -223221144.62081805 -182023426.059119 -145885540.1275189
          -114843299.47671406 -88689775.07591225 -67218037.89432131 -49775631.524753846 -35710099.56002245 -24513905.88989282
          -15679514.404130628 -8817833.530857222 -3539771.6981939473 404509.25263672485 3264847.4804123235 5185373.7858736
          6310218.969761308 6699445.760596502 6413116.886900237 5443889.3107711505 3784419.9943078817 1381343.0485605593
          -1818707.4154206894 -5907610.335438868 -10977244.64929698 -17028827.440501787 -24063575.792560034 -32038995.577467375
          -40912592.66721946 -49456617.30556142 -56443319.736238346 -354522758.6559259 -315534724.2369074 -269984267.4731586
          -223669656.84060627 -182389160.81517723 -146178664.00495747 -115074051.0180331 -88867977.04669638 -67353097.28323965
          -49875644.35743059 -35781850.89903698 -24563161.019219402 -15711018.82913843 -8835550.96572427 -3546884.0659071077
          405322.0221582076 3271407.450316825 5195792.617437036 6322897.92238713 6712906.77610623 6426002.589533458
          5454827.5706005385 3792023.927239197 1384118.543858931 -1822361.6951307624 -5919480.33740204 -10999300.930627057
          -17063043.00376533 -24111926.085776377 -32103370.666352402 -40994797.23518562 -49555989.15157911 -56556729.77483597
          -354760362.1287686 -315746197.6739379 -270165212.695979 -223819561.70829648 -182511399.22429496 -146276633.90215665
          -115151174.40006377 -88927536.94646178 -67398237.76979622 -49909071.340665236 -35805832.12966702 -24579623.410477426
          -15721548.456772288 -8841472.609802673 -3549261.210819616 405593.6716295379 3273599.968997447 5199274.871649625
          6327135.569951583 6717405.810157493 6430309.338521524 5458483.431735531 3794565.36649137 1385046.1891664276
          -1823583.0538619068 -5923447.611858168 -11006672.734086888 -17074478.76684327 -24128086.056422513 -32124886.555451576
          -41022272.21655739 -49589201.89979851 -56594634.46523355 -354522758.6559275 -315534724.23690885 -269984267.47315973
          -223669656.84060717 -182389160.81517833 -146178664.00495866 -115074051.0180336 -88867977.0466962 -67353097.2832394
          -49875644.3574304 -35781850.89903637 -24563161.01921833 -15711018.829137273 -8835550.96572307 -3546884.065905572
          405322.0221597747 3271407.4503175295 5195792.617436728 6322897.922386403 6712906.776105599 6426002.589533362
          5454827.570600737 3792023.9272387726 1384118.5438579877 -1822361.6951311 -5919480.337401616 -10999300.930626687
          -17063043.003765125 -24111926.085775726 -32103370.666351426 -40994797.23518515 -49555989.151579246 -56556729.77483609
          -353811854.04909325 -314902000.1491157 -269442883.161921 -223221144.62081924 -182023426.05912063 -145885540.12752065
          -114843299.47671492 -88689775.0759122 -67218037.8943212 -49775631.52475383 -35710099.560021974 -24513905.889891762
          -15679514.404129345 -8817833.530855771 -3539771.6981920986 404509.25263859984 3264847.4804132534 5185373.7858734
          6310218.969760572 6699445.760595827 6413116.886900224 5443889.310771557 3784419.994307624 1381343.0485597148
          -1818707.415420878 -5907610.335438253 -10977244.649296511 -17028827.440501597 -24063575.792559456 -32038995.577466547
          -40912592.6672193 -49456617.30556183 -56443319.736238256 -352633327.65443784 -313853080.18032837 -268545384.827635
          -222477608.1684023 -181417116.7746747 -145399604.00731978 -114460763.22720486 -88394354.67192197 -66994138.57906299
          -49609831.83520808 -35591151.32693736 -24432251.51683157 -15627286.867471479 -8788461.84803032 -3527980.927681321
          403161.85619770316 3253972.466228937 5168101.611966722 6289200.002965397 6677130.302343577 6391755.173219877
          5425756.03691861 3771814.314764093 1376741.8764316626 -1812649.4084033454 -5887932.434227649 -10940680.095527967
          -16972105.42177704 -23983421.442447614 -31932275.574968018 -40776315.23676656 -49291880.233530715 -56255310.37094793
          -350996519.5003296 -312396277.20525974 -267298885.3020098 -221444940.14015138 -180575038.0692559 -144724706.77332357
          -113929473.93635446 -87984057.09321825 -66683173.778784625 -49379559.280389845 -35425948.8853702 -24318845.025245216
          -15554750.131534366 -8747668.692970568 -3511605.19828671 401290.5111978185 3238868.594163632 5144112.980725233
          6260007.6009971285 6646137.255265058 6362086.743814764 5400571.458411613 3754306.790820969 1370351.492558888
          -1804235.6848585764 -5860602.584600304 -10889897.049835172 -16893326.4795514 -23872098.272737216 -31784056.433607433
          -40587044.96637688 -49063083.50568447 -55994191.68616918 -348914246.84090465 -310542998.9224386 -265713145.47314242
          -220131226.98685652 -179503783.95742118 -143866133.30229166 -113253591.93892321 -87462095.2321084 -66287578.546639726
          -49086617.04158895 -35215785.876027845 -24174574.460441902 -15462472.20531662 -8695773.502147438 -3490772.7424297747
          398909.87147215696 3219654.1371941497 5113595.738467375 6222870.359023006 6606709.314728049 6324343.921449508
          5368532.786596315 3732034.517577402 1362221.9377252657 -1793532.1296275968 -5825834.796756209 -10825293.175935594
          -16793107.503308535 -23730478.015017834 -31595498.80401786 -40346263.96326301 -48772018.746662416 -55662008.40812515
          -346402556.7550034 -308307527.6606669 -263800385.87901905 -218546592.86710575 -178211610.0819726 -142830500.2091231
          -112438325.93406086 -86832491.59891525 -65810401.54581587 -48733262.6844965 -34962281.92469097 -24000551.646660734
          -15351164.230667254 -8633176.206987217 -3465644.105897298 396038.28345928196 3196477.171939307 5076785.066975317
          6178074.475999853 6559150.333010884 6278817.572006382 5329886.9281999 3705169.1368049975 1352415.8625439142
          -1780621.2298611056 -5783897.0093688425 -10747366.344938071 -16672220.83270557 -23559652.06880811 -31368055.80957998
          -40055827.811355494 -48420929.05324027 -55261320.51433996 -343480423.576204 -305706751.083628 -261575056.28747398
          -216703008.7547747 -176708278.05256292 -141625631.0895489 -111489834.77444297 -86100002.47687106 -65255247.566459246
          -48322165.59239325 -34667352.10385883 -23798091.22339661 -15221667.07354722 -8560349.69306265 -3436409.1206948804
          392697.4402994018 3169512.786663509 5033959.049107537 6125958.35834158 6503819.590107081 6225851.620145491
          5284925.829842438 3673913.600583555 1341007.3461300149 -1765600.5197570128 -5735106.037609541 -10656705.247959584
          -16531579.695047235 -23360910.923112597 -31103445.647623196 -39717930.584046565 -48012466.70045795 -54795154.96493262
          -340169401.55421686 -302759853.0491757 -259053571.18285835 -214614073.3017633 -175004876.75238895 -140260413.30352437
          -110415114.72395852 -85270030.85483527 -64626211.53729858 -47856358.10107235 -34333171.87588043 -23568686.579899505
          -15074935.931306215 -8477831.143528853 -3403283.429995715 388911.9847516691 3138959.876171769 4985433.578290613
          6066906.425134232 6441125.216825597 6165836.75348768 5233981.133707081 3638498.456070398 1328080.5399728646
          -1748580.7951902838 -5679821.773686838 -10553978.61978459 -16372221.488081675 -23135720.533176243 -30803620.13667476
          -39335064.68018374 -47549644.58989949 -54266950.29201835 -336493244.2128017 -299487974.82784754 -256254019.89098394
          -212294772.68978506 -173113626.5118249 -138744641.02716824 -109221875.90587965 -84348531.01224644 -63927806.21055595
          -47339181.948821664 -33962138.67505707 -23313983.482470732 -14912023.464271244 -8386212.552700121 -3366504.679998886
          384709.07397721906 3105037.6293729516 4931556.779939529 6001342.319428168 6371516.987353797 6099203.523231343
          5177418.320894511 3599177.7741770023 1313728.181930148 -1729684.1569947188 -5618440.831151252 -10439923.429093106
          -16195289.459741803 -22885696.432018876 -30470730.247786887 -38909976.808908425 -47035783.04260899 -53680495.87611407
          -332477502.3493017 -295913857.31191045 -253195860.4388431 -209761227.0071942 -171047672.2940583 -137088849.49821606
          -107918411.81844807 -83341907.7502756 -63164885.78921999 -46774231.721692644 -33556831.33410499 -23035752.221982032
          -14734061.9808488 -8286130.707346642 -3326328.498116912 380117.9198984353 3067981.81975744 4872703.119862671
          5929721.738616696 6295478.707414926 6026415.057652771 5115630.526173694 3556224.8498211554 1298050.0268654206
          -1709041.9444232476 -5551389.832543944 -10315332.40599576 -16002013.359881114 -22612576.38930242 -30107089.701750442
          -38445621.50471593 -46474453.60645879 -53039867.81523891 -328149112.5326335 -292061474.76727474 -249899606.17773077
          -207030430.63037592 -168820871.9915848 -135304145.34279844 -106513465.76545791 -82256913.24039558 -62342567.74844394
          -46165296.96140683 -33119968.551088106 -22735859.102639847 -14542245.20121413 -8178256.930937326 -3283024.37593582
          375169.3187834319 3028041.0082134693 4809267.37336684 5852525.095256091 6213520.422370699 5947959.603200138
          5049032.206316478 3509927.800291786 1281151.2399010556 -1686792.62008072 -5479118.538728166 -10181041.275115915
          -15793689.635043714 -22318192.42431133 -29715137.706228275 -37945113.544104084 -45869421.535619184 -52349363.27845402
          -323535987.35474837 -287955670.145946 -246386513.741548 -204119993.71121335 -166447585.62460116 -133402037.6250315
          -105016097.85582438 -81100544.31234112 -61466154.98994308 -45516304.51983981 -32654367.53324085 -22416238.05217139
          -14337810.098656623 -8063286.871547803 -3236871.569696169 369895.1828453727 2985472.762023912 4741658.6200519
          5770250.209141789 6126170.6585016325 5864343.097339489 4978052.835374859 3460585.182327248 1263140.7964707287
          -1663079.6639206235 -5402093.007552491 -10037916.043130554 -15571661.707684895 -22004442.9382456 -29297401.85172314
          -37411680.56502798 -45224588.51516957 -51613435.13915734 -318666617.6566836 -283621801.05717015 -242678280.12583336
          -201047891.22120804 -163942470.70182914 -131394273.83593228 -103435555.89175302 -79879942.74534957 -60541060.27278016
          -44831262.599357516 -32162903.850394342 -22078863.062484328 -14122019.272221155 -7941930.5886671515 -3188155.1208846346
          364328.08536462655 2940539.984318858 4670294.414170883 5683405.21311352 6033968.891271821 5776081.958770824
          4903130.784595432 3408501.737730533 1244129.929634087 -1638049.5282359505 -5320788.951859067 -9886840.657214751
          -15337300.831102768 -21673265.66032288 -28856462.091311067 -36848617.0705033 -44543937.05910794 -50836628.51833329
          -313569695.5825178 -279085404.2760969 -238796755.62836558 -197832225.1362948 -161320288.29685563 -129292684.47050191
          -101781153.01768756 -78602300.78057133 -59572734.60131211 -44114207.723499745 -31648473.390724055 -21725722.073533658
          -13896144.242477164 -7814903.1591832265 -3137162.085280499 358500.8295616924 2893507.4356740154 4595595.260205699
          5592501.83030597 5937458.40796462 5683696.255171432 4824707.522816353 3353984.361789321 1224230.658744041
          -1611849.6996657858 -5235685.445201117 -9728705.309622914 -15091987.94674124 -21326612.01036616 -28394916.606353976
          -36259240.84056097 -43831477.819689564 -50023520.65044211 -308273765.7264727 -274371885.2543825 -234763678.181005
          -194491004.34214097 -158595723.57359076 -127109039.18461528 -100062154.48447534 -77274773.67236474 -58566600.94747712
          -43369155.65741857 -31113957.1497951 -21358792.801843528 -13661449.99080066 -7682915.982348265 -3084178.042168099
          352446.0502387407 2844638.515371153 4517979.500398916 5498049.152491807 5837179.702153293 5587703.3798868405
          4743222.248710598 3297338.371642707 1203554.427127196 -1584626.9063919035 -5147259.097512639 -9564395.614833059
          -14837096.894605331 -20966423.373081632 -27915350.217120763 -35646852.59358152 -43091200.82438878 -49178665.23146741
          -302806909.94411814 -269506237.5925539 -230600433.31772435 -191041945.7775332 -155783223.6298842 -124854916.83164908
          -98287675.33969942 -75904400.67734599 -57527994.36789949 -42600057.06358534 -30562189.416628957 -20980020.900813065
          -13419180.98992039 -7546668.923185129 -3029483.9398414763 346195.8543736676 2794192.353723403 4437858.696042893
          5400548.0191673 5733664.50590679 5488612.339071523 4659107.041216165 3238864.134895376 1182210.8713187152
          -1556525.4983042597 -5055978.792841668 -9394782.831161631 -14573979.243978012 -20594609.662004676 -27420305.841928937
          -35014699.5404381 -42327031.418577865 -48306542.1373939
        </DataArray>
        <DataArray type="Float64" Name="theta" format="ascii" RangeMin="275.9991028968589" RangeMax="436.9966824696711">
          373 362.06523045442106 349.96623941754046 337.83777218680245 326.81457405965125 317.0543086270462
          308.7146394799465 301.7027770001923 295.92593156962386 291.2233617807068 287.4343262259067 284.4190060723577
          282.0375824871937 280.18672451238285 278.7631011898934 277.699135407664 276.9272500536332 276.40869143205157
          276.1047058471696 275.999102896859 276.0756921789911 276.33611222219923 276.7820015551166 277.4283280893491
          278.2900597365025 279.3888609192773 280.74639606037385 282.3707157692747 284.26987065546234 286.4011553842284
          288.72186462086444 290.99910921093385 293 379.73411715601634 368.6019320093811 356.28450659418405
          343.9370728238892 332.71486261196026 322.7783859973261 314.2881530189154 307.14969884098264 301.26855862778245
          296.481088957115 292.6236464067803 289.553887864017 287.12947021606317 285.24519697465325 283.7958716515212
          282.71269710192576 281.92687618112535 281.3989555367288 281.0894818163447 280.98197231740284 281.0599443373332
          281.3250659866559 281.7790053758911 282.43700064632355 283.3142899392384 284.4329288053803 285.8149727954944
          287.4686178642304 289.40205996623865 291.57182276754185 293.9344299341632 296.2527877463838 298.2898024844847
          386.2576863734398 374.9342579935416 362.4052277378887 349.8456736043741 338.4306735908904 328.3234951877037
          319.6874058850799 312.4263180067995 306.44414387664295 301.5744287917186 297.6507180491347 294.5282231800058
          292.0621557154466 290.14551196435747 288.67128823563894 287.5695054972356 286.7701847170921 286.23319476153927
          285.9184044969083 285.80904805921074 285.8883595844583 286.158035840155 286.6197735938046 287.2890727674091
          288.18143328297003 289.3192895903239 290.7250761393066 292.4071296853946 294.373786984064 296.5808248080217
          298.9840199299748 301.34220552425535 303.41421476519525 392.5361161950019 381.02863102366433 368.2959475075913
          355.53224396294706 343.9316987058964 333.66023305992564 324.8837683485213 317.5046550372715 311.42524359176423
          306.47637366930445 302.4888849271972 299.3156354307932 296.80948324544346 294.86168538737167 293.3634988728016
          292.24380719472987 291.43149384615333 290.88577538144796 290.5658683549901 290.45473438187025 290.53533507717935
          290.80939478854737 291.2786378636042 291.9588161680049 292.8656815674041 294.0220331726504 295.45067009459217
          297.16006459858943 299.158688950002 301.4016010946013 303.84385897815883 306.2403757261801 308.34606446417035
          398.5342451595362 386.85092042269764 373.9236757576165 360.9649370639318 349.1871302412827 338.75871196584063
          329.8481389137772 322.35626942173593 316.1839618263608 311.1594709385964 307.1110515693875 303.8893133889343
          301.3448660674371 299.36730497926357 297.8462254987813 296.7094244266729 295.8846985636211 295.3306412745515
          295.0058459243899 294.8930137740181 294.9748460843178 295.253093551729 295.7295068726914 296.42007860847417
          297.3408013203465 298.5148224998573 299.9652896385556 301.7008044618387 303.7299686951038 306.0071535492562
          308.4867302352011 310.91986684042064 313.05773145239704 404.2167300528573 392.3668190887943 379.2552518130121
          366.11174145225556 354.1660012332697 343.58888976513174 334.55126565691904 326.9525736377593 320.69225843678015
          315.59612604288895 311.4899824449926 308.22230723713716 305.64158001336835 303.63582194803257 302.0930542154757
          300.9400441098968 300.1035589254946 299.54160163231376 299.2121752003992 299.09773423723965 299.18073335032403
          299.4629481983289 299.94615443993047 300.6465726657051 301.580423466229 302.77118438065105 304.24233294811984
          306.0025935413969 308.0606905332433 310.37034453826584 312.8852761710713 315.3531055590831 317.52145282972435
          409.5484756263038 397.54226061633915 384.2577476518061 370.9408702629794 358.83756198013384 348.12093509104164
          338.96410188347494 331.2651807309693 324.92229000706016 319.7589380269601 315.5986331058816 312.28785623614624
          309.67308841007537 307.64087376614896 306.0777564428471 304.9095377719876 304.062019085388 303.49264939908323
          303.15887772910804 303.0429272537157 303.12702115115934 303.4129585016109 303.90253838524205 304.61219534731123
          305.558363933077 306.7648313578003 308.25538483674177 310.0388638198787 312.1241077571882 314.4642268236541
          317.0123311942604 319.5127120266763 321.70966047857104 414.49509892292735 402.3438700100743 388.89890355779687
          375.42118177605886 363.1716868748243 352.32562203299705 343.0581904294808 335.2662798874441 328.8467782300556
          323.62106206424016 319.4105079969227 316.0597427815618 313.4133931716155 311.3566329588502 309.7746359350318
          308.5923072429251 307.7345520252946 307.1583053573325 306.8205023142313 306.7031513615891 306.7882609650041
          307.07765193436364 307.5731450795548 308.2913734461586 309.24897007975613 310.47000950321683 311.9785662394102
          313.7835865032796 315.89401650976845 318.2624000874704 320.84128106497934 323.3718620881228 325.59534580272845
          419.0234192594158 406.73943930284145 393.14758784476425 379.52262320830397 367.13930371658057 356.17474662690336
          346.80606919658175 338.9290327578595 332.4393986429804 327.1565920149427 322.90003803674466 319.51266602360255
          316.83740529073276 314.75817516427503 313.15889497036875 311.96364944746034 311.0965233339959 310.51398122487643
          310.172487715003 310.0538547141369 310.1398941320395 310.43244667077624 310.93335303241264 311.6594279770029
          312.62748626460143 313.861865429997 315.38690300797845 317.2116429500538 319.3451292077311 321.739387155353
          324.34644216726224 326.9046695523048 329.1524446193265 423.10196295719163 410.6984174901166 396.97427041905576
          383.2166878641301 370.71283594546077 359.64155588240897 350.1816888943355 342.22798171157444 335.6751810644597
          330.34095449975723 326.042969564233 322.6226267333724 319.92132648266073 317.8218582727481 316.2070115642844
          315.0001321782774 314.124565935735 313.5363536818487 313.1915362618106 313.0717485525062 313.1586254308214
          313.45402551520425 313.9598074241025 314.69294958320467 315.6704304181992 316.9168243520642 318.4567058077781
          320.29920676570305 322.4534592062012 324.8710215449724 327.50345219771657 330.08657996230636 332.3562336366143
          426.70147023362273 414.1924025613322 400.35149836889127 386.4768742427887 373.86664676951295 362.7011786462881
          353.16083257033796 345.1394598379329 338.53091174534325 333.1513046600693 328.81675494961166 325.3673138162486
          322.64303246225785 320.5257031886777 318.897118296546 317.6799714773621 316.7969564226255 316.2037399984131
          315.85598907080197 315.73518227681103 315.8227982534595 316.1207114312482 316.63079624067825 317.3701755500832
          318.355972227797 319.61296976180347 321.16595164008675 323.0241275326268 325.19670710940346 327.63483667307906
          330.2896625263158 332.8947660508844 335.18372862855614 429.7953903895953 417.19562217066135 403.25436057276215
          389.2791345452487 376.57747303747203 365.3310465175996 355.7215254537986 347.64199148102614 340.9855262342392
          335.5669127804539 331.200934186686 327.7264819010447 324.98244737163816 322.8497658010229 321.2093723917546
          319.98340030399464 319.0939826979044 318.49646498958646 318.1461925951437 318.02450985719435 318.1127611183568
          318.41283440022255 318.92661772438305 319.6713581133901 320.6643025897959 321.93041434130043 323.49465655560374
          325.3663056800127 327.55463816183413 330.0104460761274 332.6845214979524 335.30851406524863 337.61407341595554
          432.3603506875953 419.68538876959377 405.66092762302037 391.602299351747 378.82483605964546 367.5112923994712
          357.8444230239792 349.71667149389947 343.02048136996217 337.569530369777 333.17749621095345 329.68230886772596
          326.9218983143285 324.7764891908375 323.1263061373293 321.8930176152802 320.99829208616666 320.3972084736222
          320.0448457012802 319.92243677733927 320.0112147099976 320.313078788302 320.8299283012995 321.5791131994215
          322.5779834330993 323.85165116693406 325.42522856552716 327.30804743675805 329.5094395885065 331.97990342964437
          334.6699373690436 337.30958956626586 339.6289081808724 434.37658420616884 421.6425149185274 407.55265325916724
          393.42846514296224 380.59141648478607 369.2251141803344 359.51316512530303 351.3475113106139 344.62009472718944
          339.1437242127097 334.73120860485494 331.2197220938988 328.4464388701145 326.29102502306625 324.6331466423177
          323.3941069045238 322.4952089863396 321.89132233016466 321.5373163783981 321.41433662280014 321.5035285551308
          321.80680032142453 322.32606006771584 323.07873865276076 324.0822669353154 325.36187418597314 326.94278967532784
          328.83438872844073 331.04604667037285 333.528031068368 336.23060948967003 338.8825712227435 341.21270555605213
          435.82830254802826 423.0516750686622 408.9147240602237 394.7433318734088 381.86338085891316 370.45909154011855
          360.7146844404065 352.5217404129226 345.77184031081276 340.2771673651896 335.84990480716635 332.326682651241
          329.54413091191185 327.38151351400506 325.7180943823472 324.4749136830488 323.5730115822205 322.96710669263445
          322.611917627063 322.4885268641194 322.578016882417 322.8823022051539 323.4032973555284 324.1584914475025
          325.1653735950382 326.44925738679825 328.0354564114453 329.93337732706345 332.1524267917364 334.6427061632771
          337.35431679949846 340.0151415828137 342.3530633956361 436.7040005907016 423.90170137865937 409.7363453762015
          395.53647899363705 382.63064864127574 371.20344499182335 361.4394587179862 353.230052829245 346.4665903350804
          340.96087709144206 336.52471895427954 332.99441768318934 330.2062750377679 328.03931235110554 326.3725509562922
          325.12687236757563 324.223158099204 323.61603578128035 323.26013304390807 323.1364943552355 323.2261641834109
          323.53106089843254 324.0531028702979 324.8098143533738 325.81871960202665 327.10518306682974 328.69456919835596
          330.5963035552336 332.81981169609037 335.3150947187446 338.0321537210146 340.6983248277353 343.0409441637415
          436.9966824696711 424.18580307291916 410.0109533561709 395.8015701302336 382.8870902059149 371.45222796979766
          361.6816978084645 353.46678992217454 346.69879451118663 341.1893913025033 336.7502600231271 333.21759272102275
          330.4275814441547 328.2591664449191 326.59128797571174 325.3447745250535 324.4404545814654 323.8329253661914
          323.47678410047547 323.3530625483446 323.44279247382576 323.74789353262105 324.27028538043214 325.0275040164959
          326.03708544004866 327.32441110108437 328.91486244959697 330.81787136128537 333.04286971184865 335.53982508951367
          338.25870508250745 340.92666307455124 343.2708524493664 436.70400059070164 423.9017013786595 409.7363453762014
          395.53647899363705 382.63064864127585 371.2034449918236 361.4394587179862 353.23005282924487 346.46659033508035
          340.9608770914421 336.52471895427936 332.994417683189 330.2062750377675 328.0393123511051 326.37255095629183
          325.12687236757546 324.22315809920394 323.61603578128046 323.26013304390824 323.1364943552357 323.2261641834112
          323.5310608984326 324.053102870298 324.80981435337395 325.81871960202676 327.1051830668298 328.6945691983561
          330.59630355523376 332.8198116960904 335.3150947187447 338.0321537210148 340.6983248277355 343.0409441637415
          435.8283025480281 423.05167506866206 408.9147240602235 394.74333187340864 381.8633808589132 370.45909154011855
          360.71468444040636 352.5217404129223 345.7718403108124 340.2771673651894 335.849904807166 332.32668265124056
          329.54413091191117 327.3815135140044 325.7180943823466 324.4749136830484 323.57301158222026 322.9671066926344
          322.6119176270632 322.4885268641196 322.57801688241705 322.88230220515385 323.4032973555284 324.1584914475027
          325.16537359503826 326.4492573867982 328.03545641144535 329.9333773270635 332.1524267917364 334.6427061632771
          337.35431679949863 340.01514158281395 342.3530633956361 434.3765842061688 421.64251491852724 407.5526532591672
          393.4284651429621 380.59141648478607 369.22511418033446 359.5131651253029 351.3475113106138 344.62009472718927
          339.14372421270957 334.73120860485477 331.2197220938986 328.44643887011426 326.29102502306597 324.63314664231734
          323.3941069045235 322.49520898633943 321.8913223301644 321.537316378398 321.4143366228002 321.50352855513086
          321.80680032142453 322.32606006771584 323.07873865276093 324.0822669353154 325.3618741859732 326.9427896753279
          328.8343887284408 331.0460466703729 333.52803106836797 336.23060948967014 338.8825712227435 341.21270555605213
          432.36035068759526 419.68538876959343 405.66092762302014 391.60229935174686 378.8248360596455 367.51129239947113
          357.84442302397906 349.7166714938993 343.020481369962 337.5695303697768 333.1774962109534 329.682308867726
          326.9218983143287 324.7764891908377 323.1263061373293 321.89301761528014 320.99829208616643 320.3972084736219
          320.04484570128005 319.92243677733916 320.0112147099976 320.3130787883021 320.8299283012996 321.5791131994215
          322.5779834330993 323.8516511669341 325.42522856552716 327.30804743675805 329.5094395885064 331.9799034296443
          334.6699373690435 337.30958956626563 339.6289081808724 429.79539038959535 417.195622170661 403.2543605727619
          389.2791345452485 376.57747303747186 365.3310465175993 355.72152545379834 347.6419914810259 340.985526234239
          335.56691278045366 331.2009341866859 327.72648190104456 324.9824473716383 322.84976580102295 321.20937239175464
          319.98340030399464 319.09398269790444 318.4964649895866 318.1461925951439 318.0245098571946 318.11276111835707
          318.41283440022295 318.92661772438333 319.6713581133903 320.664302589796 321.93041434130055 323.4946565556038
          325.3663056800128 327.554638161834 330.0104460761274 332.68452149795235 335.30851406524863 337.61407341595554
          426.70147023362273 414.19240256133185 400.35149836889104 386.4768742427884 373.8666467695128 362.7011786462879
          353.1608325703378 345.13945983793263 338.53091174534296 333.15130466006906 328.8167549496115 325.36731381624827
          322.6430324622577 320.52570318867754 318.89711829654595 317.6799714773622 316.7969564226258 316.20373999841354
          315.85598907080237 315.7351822768115 315.82279825346 316.12071143124876 316.63079624067876 317.3701755500837
          318.3559722277972 319.6129697618037 321.1659516400869 323.0241275326269 325.1967071094036 327.6348366730791
          330.2896625263159 332.89476605088464 335.1837286285562 423.10196295719163 410.6984174901165 396.97427041905576
          383.21668786413017 370.71283594546094 359.6415558824091 350.18168889433565 342.22798171157456 335.6751810644597
          330.3409544997572 326.042969564233 322.6226267333723 319.92132648266073 317.82185827274816 316.2070115642845
          315.0001321782776 314.1245659357351 313.536353681849 313.19153626181077 313.0717485525065 313.15862543082176
          313.4540255152046 313.9598074241029 314.69294958320506 315.67043041819954 316.91682435206457 318.4567058077786
          320.2992067657036 322.45345920620167 324.87102154497273 327.5034521977168 330.0865799623065 332.35623363661426
          419.02341925941573 406.7394393028414 393.14758784476436 379.5226232083042 367.1393037165809 356.1747466269038
          346.80606919658226 338.92903275786 332.43939864298073 327.15659201494293 322.90003803674483 319.51266602360283
          316.8374052907331 314.75817516427526 313.1588949703691 311.96364944746057 311.09652333399595 310.5139812248764
          310.17248771500294 310.05385471413695 310.13989413203956 310.43244667077647 310.9333530324128 311.65942797700325
          312.6274862646018 313.86186542999747 315.386903007979 317.2116429500544 319.34512920773165 321.73938715535337
          324.3464421672625 326.9046695523049 329.1524446193265 414.49509892292735 402.3438700100743 388.8989035577969
          375.4211817760589 363.1716868748244 352.3256220329971 343.058190429481 335.26627988744445 328.84677823005586
          323.6210620642404 319.410507996923 316.05974278156214 313.4133931716159 311.35663295885047 309.77463593503205
          308.59230724292524 307.73455202529465 307.1583053573327 306.82050231423153 306.7031513615892 306.7882609650042
          307.0776519343638 307.573145079555 308.2913734461589 309.24897007975636 310.47000950321717 311.9785662394106
          313.78358650328 315.8940165097688 318.2624000874707 320.84128106497957 323.37186208812295 325.5953458027285
          409.54847562630385 397.54226061633915 384.257747651806 370.9408702629793 358.8375619801337 348.1209350910414
          338.9641018834749 331.2651807309693 324.9222900070602 319.75893802696027 315.59863310588185 312.2878562361466
          309.67308841007554 307.64087376614907 306.0777564428472 304.90953777198763 304.0620190853883 303.49264939908375
          303.1588777291085 303.04292725371596 303.1270211511597 303.4129585016113 303.9025383852422 304.6121953473114
          305.55836393307715 306.76483135780035 308.2553848367418 310.0388638198787 312.12410775718814 314.46422682365414
          317.01233119426047 319.51271202667647 321.70966047857104 404.2167300528574 392.3668190887943 379.255251813012
          366.11174145225556 354.1660012332697 343.5888897651316 334.5512656569191 326.95257363775943 320.6922584367803
          315.5961260428891 311.4899824449928 308.2223072371372 305.6415800133684 303.6358219480326 302.09305421547583
          300.940044109897 300.10355892549484 299.5416016323142 299.2121752003996 299.09773423724005 299.18073335032454
          299.4629481983296 299.94615443993104 300.64657266570555 301.58042346622926 302.77118438065116 304.2423329481199
          306.0025935413969 308.06069053324336 310.370344538266 312.88527617107144 315.3531055590832 317.5214528297244
          398.5342451595363 386.8509204226976 373.9236757576164 360.9649370639318 349.1871302412827 338.75871196584063
          329.84813891377735 322.3562694217362 316.183961826361 311.1594709385965 307.11105156938754 303.8893133889343
          301.34486606743724 299.36730497926374 297.8462254987815 296.70942442667314 295.88469856362127 295.3306412745516
          295.00584592439003 294.8930137740183 294.9748460843183 295.25309355172965 295.7295068726921 296.4200786084748
          297.3408013203468 298.51482249985753 299.96528963855576 301.70080446183886 303.72996869510405 306.00715354925654
          308.4867302352014 310.91986684042075 313.05773145239715 392.5361161950019 381.02863102366416 368.29594750759077
          355.5322439629465 343.931698705896 333.6602330599254 324.88376834852124 317.5046550372715 311.4252435917642
          306.47637366930445 302.4888849271972 299.3156354307933 296.8094832454436 294.8616853873717 293.3634988728017
          292.2438071947299 291.4314938461533 290.8857753814479 290.5658683549901 290.4547343818705 290.53533507717964
          290.8093947885477 291.27863786360473 291.95881616800534 292.8656815674046 294.0220331726507 295.45067009459245
          297.16006459858966 299.15868895000233 301.4016010946017 303.84385897815906 306.2403757261801 308.34606446417047
          386.25768637343987 374.93425799354134 362.4052277378882 349.8456736043735 338.4306735908899 328.3234951877033
          319.68740588507956 312.4263180067992 306.4441438766428 301.57442879171856 297.6507180491348 294.5282231800059
          292.06215571544664 290.14551196435747 288.6712882356388 287.56950549723547 286.77018471709204 286.23319476153927
          285.91840449690835 285.80904805921085 285.88835958445844 286.158035840155 286.6197735938048 287.2890727674092
          288.1814332829703 289.31928959032405 290.7250761393068 292.40712968539475 294.37378698406417 296.58082480802193
          298.9840199299749 301.34220552425535 303.41421476519537 379.7341171560164 368.60193200938113 356.28450659418405
          343.93707282388925 332.7148626119603 322.778385997326 314.2881530189153 307.1496988409827 301.2685586277825
          296.481088957115 292.6236464067804 289.55388786401704 287.1294702160633 285.24519697465325 283.7958716515211
          282.71269710192564 281.92687618112535 281.3989555367288 281.08948181634463 280.98197231740284 281.05994433733315
          281.32506598665583 281.7790053758911 282.4370006463235 283.3142899392383 284.43292880538013 285.81497279549427
          287.4686178642304 289.40205996623854 291.57182276754173 293.93442993416306 296.2527877463838 298.28980248448477
          373 362.0652304544209 349.96623941753995 337.8377721868018 326.81457405965097 317.0543086270463
          308.71463947994664 301.7027770001924 295.925931569624 291.22336178070697 287.4343262259069 284.4190060723578
          282.03758248719373 280.1867245123829 278.7631011898935 277.69913540766413 276.9272500536332 276.4086914320514
          276.1047058471695 275.9991028968589 276.07569217899095 276.336112222199 276.78200155511655 277.4283280893492
          278.29005973650266 279.38886091927736 280.74639606037385 282.3707157692746 284.26987065546234 286.40115538422845
          288.7218646208644 290.99910921093374 293
        </DataArray>
        <DataArray type="Float64" Name="von Mises stress" format="ascii" RangeMin="36308261.56705363" RangeMax="318074276.2813303">
          271493376.98305863 235143029.50677708 198494737.08465153 163288626.4746046 131264824.43455885 103621385.69384438
          81556364.98179124 64922962.9260036 53574380.15408553 46749020.89159048 43685289.364071876 43051377.895804085
          43515478.81106147 44481836.2797577 45354694.47180642 46022978.97372225 46375615.3720198 46418005.65523104
          46155551.811887965 45611530.52081632 44809218.460841835 43774496.36661344 42533244.972780004 41138725.61550129
          39644199.63093703 38205930.68223006 36980182.43252322 36308261.56705363 36531474.77105841 37839606.66800645
          40422441.88136668 43886037.7882403 47836451.765728556 276394900.3248956 239388286.09534955 202078347.84253278
          166236628.4567977 133634670.82849683 105492159.28694232 83028778.16144656 66095077.773472354 54541608.44448262
          47593024.60064757 44473980.66813745 43828624.60426099 44301104.36632691 45284908.388203315 46173525.103758276
          46853874.76943818 47212877.64168942 47256033.23617904 46988841.0685741 46434998.05330687 45618201.10480961
          44564798.206793055 43301137.342967905 41881441.42611995 40359933.369035 38895698.00864095 37647820.18186571
          36963768.50210717 37191011.58276325 38522760.40617824 41152225.95469643 44678353.39151314 48700087.87982366
          281143173.3455122 243500811.10638675 205549913.94709226 169092458.63826045 135930421.95052296 107304441.54555747
          84455155.08504175 67230545.44844413 55478595.51523299 48410639.811527655 45238012.86344747 44581570.028979406
          45062166.6661104 46062871.759893924 46966754.29538346 47658791.89730782 48023962.19039583 48067859.16818008
          47796076.82419317 47232719.16944862 46401890.21495993 45330390.58455521 44045020.902062565 42600935.59236514
          41053289.080346085 39563899.17028406 38294583.66645769 37598780.45246594 37829927.41190773 39184554.75804195
          41859192.70412745 45445896.56894635 49536721.67128073 285713018.1567767 247458797.72569394 208891027.29007465
          171840973.87186792 138139904.49302307 109048622.77380656 85827932.33448489 68323345.09057398 56380372.95758971
          49197531.09000168 45973334.64227946 45306221.650597356 45794630.15112967 46811601.216944546 47730175.92111014
          48433462.25589142 48804568.21355338 48849178.715260126 48572978.6821758 48000463.92422755 47156130.25134256
          46067213.918383785 44760951.180214226 43293392.969923556 41720590.22060146 40206991.00580754 38917043.399101414
          38209930.244057275 38444834.38424933 39821480.53546363 42539593.41348627 46184597.39578533 50341916.85982896
          290078841.9860819 251240079.80642718 212082976.43674943 174466781.4853746 140250744.56062877 110714934.93094681
          87139421.86476366 69367356.62996045 57241890.49441837 49949291.56249223 46675827.93853689 45998521.159519464
          46494392.76240709 47526903.605005436 48459514.54512021 49173547.41240793 49550324.036525115 49595616.20680067
          49315195.71256351 48733932.67077018 47876697.198377304 46771141.73251068 45444918.71029615 43954935.54837157
          42358099.663374834 40821371.969627105 39511713.381449565 38793795.21832692 39032288.79974389 40429970.72525659
          43189617.59442115 46890318.882139504 51111164.063313656 294214919.76973486 254822376.62374252 215106953.2324228
          176954409.2416614 142250504.29734397 112293559.48531179 88381895.89140603 70356428.36201122 58058071.74351186
          50661491.57595852 47341353.399401784 46654389.268248826 47157331.23690682 48204564.09480973 49150472.63139153
          49874686.50827504 50256835.387083106 50302773.35397624 50018354.49511496 49428803.53704201 48559345.2063002
          47438026.22120509 46092893.30007228 44581665.27170627 42962060.96491156 41403421.899654165 40075089.59590008
          39346935.024830885 39588829.15762819 41006439.876032814 43805435.06178561 47558902.653584845 51839930.59012882
          298095706.93013567 258183563.77285442 217944281.47845528 179288493.45456794 144126833.10882208 113774746.78978445
          89547680.84602192 71284451.74079412 58823875.93736083 51329732.55515045 47965800.71359138 47269775.30979087
          47779351.24085611 48840397.42889693 49798782.79602312 50532549.28129956 50919738.82379112 50966282.72689067
          50678112.29399109 50080784.97369668 49199858.21461176 48063748.68007215 46700873.03341364 45169711.43291295
          43528744.036846824 41949546.032995 40603692.609137274 39865933.45068632 40111018.2430549 41547327.69191319
          44383242.502931386 48186219.5106893 52523715.54976671 301696177.34148383 261301965.884917 220576664.02736524
          181453982.25839037 145867631.0675542 115148945.07537684 90629258.90237841 72145442.19896542 59534364.615544215
          51949705.19809044 48545142.992579676 47840710.829426944 48356441.53904729 49430303.29376611 50400264.2659088
          51142893.35625155 51534759.46557057 51581865.53694296 51290214.51344587 50685672.532589234 49794105.73188298
          48644273.99783981 47264937.21697234 45715281.88473225 44054494.49657114 42456222.56594321 41094113.60630265
          40347443.618344866 40595488.602765314 42049146.13665422 44919313.79710177 48768224.06009198 53158109.401608855
          304992179.969477 264156665.51636124 222986443.53044346 183436350.10822913 147461221.34622344 116406936.57164447
          91619375.1117103 72933624.43296167 60184772.001939245 52517250.8870456 49075494.15668322 48363366.1378201
          48884731.157424204 49970324.75178585 50950882.45719539 51701624.70117186 52097771.9112343 52145392.61205454
          51850555.32830439 51239408.78263647 50338101.697703406 49175708.15909834 47781302.252414405 46214717.080051765
          44535785.74441054 42920052.841849945 41543062.96872921 40788235.68071347 41038990.5334678 42508529.14046291
          45410053.115169495 49301012.36415959 53738856.7940052 307960806.2474829 266727821.33689094 225156871.03432852
          185221818.73662487 148896527.84060887 117539977.72326134 92511147.76156303 73643520.2540767 60770577.49936493
          53028424.94747346 49553168.048448026 48834108.566785835 49360548.26698414 50456708.43282511 51446810.348090865
          52204859.90451213 52604862.993819624 52652947.20836975 52355240.14051895 51738145.03021619 50828065.11741045
          49654357.47886715 48246379.19135171 46664545.73980324 44969272.609160855 43337813.05041774 41947420.31456708
          41185245.952528805 41438441.51522279 42922283.80346485 45852049.61807082 49780881.32619846 54261921.29500549
          310580759.02481365 268996987.6791991 227072375.7271733 186797579.05597857 150163253.55285707 118539940.00688231
          93298179.20712772 74270036.81566715 61287578.49457433 53479560.1777238 49974737.79899006 49249560.97429921
          49780479.31957723 50885964.983365394 51884490.11420493 52648988.71867962 53052394.803373225 53100888.090660654
          52800648.30291679 52178303.303615116 51260480.95622912 50076788.090587765 48656831.53652002 47061540.759037726
          45351845.22315267 43706506.14820272 42304284.75352569 41535626.25196369 41790975.856358804 43287441.818285175
          46242132.3893169 50204388.32980912 54723550.40011694 312832712.99596065 270947426.7100784 228718828.456184
          188152007.9372038 151252054.85606414 119399447.49694984 93974664.14404562 74808552.80383033 61731961.48278282
          53867328.912320316 50337093.823860094 49606658.89871246 50141426.81818776 51254928.11964459 52260693.340441585
          53030735.1591015 53437066.254147075 53485911.155784264 53183494.39421904 52556636.90580966 51632159.62691435
          50439884.06008711 49009631.707881965 47402773.82169537 45680681.65292382 44023412.57987862 42611023.98087104
          41836792.10261135 42093993.191809796 43601309.70505843 46577424.098949365 50568409.50107194 55120339.03901552
          314699655.98018736 272564404.01581264 230083791.24437833 189274873.47081733 152154706.5000621 120112007.1225132
          94535492.12857106 75255000.04867889 62100369.41327996 54188801.787775785 50637498.73756792 49902704.676369555
          50440664.017893925 51560810.54332807 52572578.03385905 53347215.357122995 53755971.38075604 53805107.782111675
          53500886.2385434 52870287.75010196 51940293.316838115 50740902.411967374 49302114.50870526 47685667.11371002
          45953297.73363993 44286138.30469373 42865320.76307011 42086468.374506354 42345204.40473971 43861516.37745153
          46855391.81632317 50870194.875250116 55449289.708127834 316167200.3414569 273835458.3261289 231156744.97671458
          190157522.26944637 152864252.1805566 120672127.5275251 94976341.12783162 75605937.99498823 62389963.14250694
          54441501.36654556 50873637.46326186 50135416.82418143 50675884.84082982 51801254.96497484 52817740.64838428
          53595990.351306595 54006652.53399021 54056018.07397761 53750377.848811276 53116838.67950693 52182507.38708023
          50977523.341810435 49532025.91397678 47908040.51182255 46167592.54359106 44492658.62117895 43065215.35648286
          42282730.93207349 42542673.53052152 44066056.54714117 47073893.37724669 51107418.73687684 55707867.34207038
          317223854.26925856 274750636.473287 231929287.7396489 190793042.6288406 153375135.7013582 121075422.6112032
          95293759.01237692 75858618.57431102 62598474.96643716 54623448.849377126 51043660.88375267 50302973.05725518
          50845247.35757611 51974378.55105292 52994261.40402308 53775112.07442009 54187146.720177464 54236677.24341139
          53930015.54623805 53294359.04265265 52356905.146650374 51147893.95649251 49697565.570440374 48068152.6901921
          46321888.01744587 44641356.34325624 43209142.45867784 42424042.91404302 42684854.25968415 44213328.53386131
          47231217.77483459 51278223.47148186 55894047.11268104 317861243.5958303 275302685.5099749 232395296.9963474
          191176397.9387591 153683308.22102097 121318696.18931325 95485230.18981588 76011039.24873517 62724252.39227748
          54733202.27053142 51146221.53358569 50404045.46303301 50947409.34046618 52078809.26676839 53100741.342822865
          53883160.95539289 54296023.491241775 54345653.53482007 54038375.67057834 53401441.95954146 52462104.462734334
          51250664.039031215 49797421.5473064 48164734.73174569 46414961.33653491 44731053.01542029 43295961.42214806
          42509284.39819306 42770619.78503016 44302165.18130344 47326118.18565698 51381255.421596564 56006353.512628004
          318074276.2813303 275487195.17137396 232551049.84519723 191304525.61173183 153786307.77990934 121400004.77341881
          95549225.01594904 76061982.34465553 62766290.59669378 54769884.82085975 51180500.06594945 50437826.584137246
          50981554.62759752 52113712.82553539 53136329.807155915 53919273.80247173 54332413.04149543 54382076.347455144
          54074592.543578975 53437231.95540174 52497264.908458255 51285012.56945646 49830796.10510426 48197015.05215578
          46446068.94736508 44761032.059874184 43324978.65882503 42537774.39878067 42799284.93430407 44331856.78232402
          47357836.45976924 51415691.47521999 56043889.337256536 317861243.5958272 275302685.5099727 232395296.9963453
          191176397.938757 153683308.2210194 121318696.18931225 95485230.18981515 76011039.24873461 62724252.39227717
          54733202.27053126 51146221.53358536 50404045.46303243 50947409.34046545 52078809.26676756 53100741.34282187
          53883160.95539185 54296023.49124096 54345653.53481941 54038375.67057744 53401441.95954038 52462104.46273358
          51250664.03903099 49797421.54730656 48164734.73174595 46414961.336534895 44731053.01541999 43295961.42214783
          42509284.39819311 42770619.78503043 44302165.181304 47326118.185658 51381255.421597555 56006353.51262785
          317223854.2692553 274750636.4732846 231929287.7396465 190793042.62883794 153375135.70135593 121075422.61120154
          95293759.01237565 75858618.5743101 62598474.96643658 54623448.84937674 51043660.883752145 50302973.057254404
          50845247.357575096 51974378.55105173 52994261.404021814 53775112.074418895 54187146.7201765 54236677.24341056
          53930015.54623696 53294359.04265142 52356905.14664959 51147893.95649235 49697565.57044052 48068152.69019226
          46321888.01744564 44641356.34325572 43209142.45867749 42424042.91404305 42684854.259684406 44213328.53386183
          47231217.774835534 51278223.471482836 55894047.11268105 316167200.34145784 273835458.32612956 231156744.97671458
          190157522.26944563 152864252.18055522 120672127.52752347 94976341.12783027 75605937.99498731 62389963.142506205
          54441501.36654492 50873637.46326144 50135416.82418108 50675884.84082921 51801254.96497407 52817740.648383886
          53595990.35130661 54006652.53399019 54056018.07397742 53750377.84881115 53116838.67950698 52182507.38708052
          50977523.34181081 49532025.913976826 47908040.511822194 46167592.54359049 44492658.621178426 43065215.356482625
          42282730.9320735 42542673.53052144 44066056.54714084 47073893.3772461 51107418.7368764 55707867.342070945
          314699655.9801911 272564404.01581514 230083791.2443801 189274873.47081822 152154706.50006178 120112007.12251198
          94535492.12856993 75255000.04867817 62100369.413279206 54188801.78777501 50637498.73756759 49902704.676369645
          50440664.01789389 51560810.543328 52572578.03385966 53347215.35712426 53755971.38075718 53805107.78211253
          53500886.23854442 52870287.75010322 51940293.31683936 50740902.411968306 49302114.50870557 47685667.11370983
          45953297.73363975 44286138.3046938 42865320.763070405 42086468.37450664 42345204.40473956 43861516.37745072
          46855391.81632167 50870194.87524879 55449289.70812843 312832712.9959609 270947426.7100786 228718828.4561843
          188152007.93720406 151252054.8560639 119399447.49694914 93974664.14404501 74808552.80382988 61731961.482782215
          53867328.91231961 50337093.82385968 49606658.898712434 50141426.81818792 51254928.11964497 52260693.34044241
          53030735.15910278 53437066.25414871 53485911.155786 53183494.3942205 52556636.90581077 51632159.62691538
          50439884.06008824 49009631.70788327 47402773.82169682 45680681.652925275 44023412.57988 42611023.980872355
          41836792.10261246 42093993.19181042 43601309.70505861 46577424.09894941 50568409.501071855 55120339.039015025
          310580759.0248108 268996987.6791971 227072375.7271721 186797579.0559781 150163253.55285704 118539940.00688243
          93298179.20712776 74270036.81566696 61287578.494573876 53479560.17772318 49974737.798989505 49249560.97429889
          49780479.31957742 50885964.983366005 51884490.11420556 52648988.71868037 53052394.80337468 53100888.0906626
          52800648.302918226 52178303.30361586 51260480.95622986 50076788.090589024 48656831.53652219 47061540.759040624
          45351845.223155595 43706506.14820533 42304284.75352806 41535626.251965806 41790975.8563606 43287441.81828681
          46242132.38931886 50204388.329810604 54723550.40011596 307960806.2474834 266727821.3368915 225156871.0343292
          185221818.73662576 148896527.8406101 117539977.72326265 92511147.76156382 73643520.25407675 60770577.49936447
          53028424.94747278 49553168.048447415 48834108.56678554 49360548.26698438 50456708.432825744 51446810.3480915
          52204859.90451272 52604862.99382053 52652947.20837106 52355240.1405204 51738145.03021767 50828065.117411986
          49654357.47886889 48246379.19135393 46664545.73980599 44969272.6091639 43337813.05042091 41947420.31457022
          41185245.95253181 41438441.5152256 42922283.80346738 45852049.618072964 49780881.32619995 54261921.295005895
          304992179.9694816 264156665.51636514 222986443.5304466 183436350.10823143 147461221.34622547 116406936.57164618
          91619375.11171123 72933624.43296169 60184772.00193862 52517250.887044616 49075494.15668233 48363366.13781956
          48884731.15742415 49970324.751786284 50950882.457196094 51701624.701172665 52097771.91123505 52145392.61205546
          51850555.32830611 51239408.78263904 50338101.697706245 49175708.15910113 47781302.25241705 46214717.080054484
          44535785.74441386 42920052.84185392 41543062.9687334 40788235.68071755 41038990.533471644 42508529.140466124
          45410053.11517143 49301012.364160605 53738856.79400669 301696177.3414877 261301965.88492113 220576664.0273685
          181453982.25839233 145867631.06755537 115148945.07537742 90629258.90237854 72145442.19896504 59534364.615543224
          51949705.19808895 48545142.992578015 47840710.82942546 48356441.53904636 49430303.29376594 50400264.26590938
          51142893.35625271 51534759.46557195 51581865.53694459 51290214.513448134 50685672.53259233 49794105.73188685
          48644273.997844175 47264937.21697674 45715281.884736724 44054494.49657632 42456222.56594908 41094113.606308594
          40347443.618350506 40595488.60277045 42049146.136658475 44919313.79710463 48768224.06009338 53158109.40160924
          298095706.930139 258183563.77285805 217944281.478458 179288493.45456937 144126833.10882264 113774746.78978449
          89547680.8460216 71284451.74079342 58823875.937359415 51329732.55514835 47965800.71358892 47269775.309788465
          47779351.24085426 48840397.428895965 49798782.796023175 50532549.281300604 50919738.82379293 50966282.726893075
          50678112.29399395 50080784.973700136 49199858.21461622 48063748.68007761 46700873.033419766 45169711.43291961
          43528744.03685412 41949546.03300272 40603692.60914486 39865933.45069341 40111018.24306129 41547327.69191867
          44383242.502935715 48186219.51069185 52523715.549766555 294214919.7697432 254822376.6237479 215106953.23242643
          176954409.24166417 142250504.29734614 112293559.48531334 88381895.89140661 70356428.36201061 58058071.743510045
          50661491.57595586 47341353.39939893 46654389.268246196 47157331.23690456 48204564.09480807 49150472.63139071
          49874686.5082752 50256835.38708431 50302773.35397848 50018354.49511816 49428803.53704606 48559345.20630489
          47438026.22121053 46092893.30007888 44581665.27171396 42962060.96491984 41403421.89966263 40075089.59590843
          39346935.02483888 39588829.157635644 41006439.87603945 43805435.06179106 47558902.65358881 51839930.59013105
          290078841.9860947 251240079.80643496 212082976.4367549 174466781.48537925 140250744.56063262 110714934.93094958
          87139421.86476485 69367356.62995988 57241890.49441623 49949291.56248913 46675827.93853377 45998521.15951678
          46494392.76240479 47526903.60500361 48459514.54511905 49173547.412407584 49550324.03652578 49595616.20680252
          49315195.712566696 48733932.67077449 47876697.19838209 46771141.732516006 45444918.71030276 43954935.5483795
          42358099.6633834 40821371.96963589 39511713.381458394 38793795.218335636 39032288.79975228 40429970.72526425
          43189617.59442742 46890318.882144384 51111164.06331775 285713018.1567882 247458797.72570318 208891027.29008192
          171840973.8718734 138139904.49302655 109048622.77380817 85827932.33448511 68323345.09057295 56380372.95758731
          49197531.08999825 45973334.64227586 45306221.6505942 45794630.151127346 46811601.216943204 47730175.9211097
          48433462.25589182 48804568.213554606 48849178.71526218 48572978.682178706 48000463.92423141 47156130.2513475
          46067213.91838985 44760951.18022134 43293392.9699316 41720590.22061028 40206991.00581693 38917043.39911108
          38209930.244066894 38444834.384258606 39821480.535472065 42539593.413493134 46184597.39579017 50341916.85983152
          281143173.3455235 243500811.10639817 205549913.9471017 169092458.63826686 135930421.95052645 107304441.54555862
          84455155.08504145 67230545.44844274 55478595.51523027 48410639.81152379 45238012.86344307 44581570.028975226
          45062166.66610738 46062871.75989247 46966754.2953834 47658791.89730893 48023962.19039782 48067859.168182746
          47796076.8241964 47232719.1694526 46401890.214965224 45330390.58456181 44045020.9020699 42600935.5923731
          41053289.08035502 39563899.1702939 38294583.66646795 37598780.45247611 37829927.41191736 39184554.75805047
          41859192.70413428 45445896.568950914 49536721.6712825 276394900.3249112 239388286.0953636 202078347.8425437
          166236628.45680526 133634670.82850209 105492159.28694575 83028778.16144773 66095077.773471296 54541608.44447964
          47593024.600643165 44473980.668132246 43828624.60425579 44301104.36632265 45284908.38820054 46173525.10375711
          46853874.769438565 47212877.64169109 47256033.23618186 46988841.06857807 46434998.05331178 45618201.10481506
          44564798.20679899 43301137.34297458 41881441.42612757 40359933.36904368 38895698.008650556 37647820.18187579
          36963768.502117164 37191011.58277243 38522760.40618607 41152225.954702504 44678353.39151775 48700087.87982776
          271493376.9830646 235143029.50678405 198494737.08465764 163288626.47460923 131264824.43456264 103621385.69384739
          81556364.98179291 64922962.926003456 53574380.15408327 46749020.89158661 43685289.36406777 43051377.8958005
          43515478.811058536 44481836.27975534 45354694.47180435 46022978.9737206 46375615.37201913 46418005.65523139
          46155551.81188886 45611530.52081793 44809218.46084501 43774496.36661846 42533244.972786635 41138725.615509145
          39644199.63094558 38205930.682239145 36980182.43253304 36308261.56706375 36531474.77106777 37839606.66801441
          40422441.88137299 43886037.78824405 47836451.76572814
        </DataArray>
      </PointData>
      <CellData>
      </CellData>
      <Points>
        <DataArray type="Float64" Name="Points" NumberOfComponents="3" format="ascii" RangeMin="0.029999999999999933" RangeMax="0.04000000000000004">
          0.03 0 0 0.0303125 0 0
          0.030625 0 0 0.0309375 0 0
          0.03125 0 0 0.0315625 0 0
          0.031875 0 0 0.0321875 0 0
          0.0325 0 0 0.0328125 0 0
          0.033125 0 0 0.0334375 0 0
          0.03375 0 0 0.0340625 0 0
          0.034375 0 0 0.0346875 0 0
          0.035 0 0 0.0353125 0 0
          0.035625 0 0 0.0359375 0 0
          0.03625 0 0 0.0365625 0 0
          0.036875 0 0 0.0371875 0 0
          0.0375 0 0 0.0378125 0 0
          0.038125 0 0 0.0384375 0 0
          0.03875 0 0 0.0390625 0 0
          0.039375 0 0 0.0396875 0 0
          0.04 0 0 0.029970174201170083 0.0013374073244597354 0
          0.03028236351576558 0.001351338650756192 0 0.03059455283036111 0.001365269977052648 0
          0.03090674214495664 0.0013792013033491037 0 0.031218931459552162 0.001393132629645559 0
          0.03153112077414768 0.0014070639559420146 0 0.031843310088743186 0.0014209952822384702 0
          0.03215549940333871 0.0014349266085349254 0 0.03246768871793424 0.001448857934831381 0
          0.032779878032529776 0.0014627892611278365 0 0.033092067347125304 0.001476720587424292 0
          0.03340425666172081 0.0014906519137207479 0 0.033716445976316324 0.0015045832400172028 0
          0.03402863529091185 0.0015185145663136582 0 0.034340824605507386 0.0015324458926101138 0
          0.03465301392010292 0.0015463772189065691 0 0.03496520323469845 0.0015603085452030245 0
          0.03527739254929396 0.0015742398714994805 0 0.03558958186388947 0.001588171197795937 0
          0.03590177117848498 0.0016021025240923938 0 0.036213960493080524 0.0016160338503888498 0
          0.03652614980767605 0.0016299651766853054 0 0.036838339122271566 0.001643896502981761 0
          0.03715052843686707 0.0016578278292782168 0 0.03746271775146261 0.0016717591555746722 0
          0.03777490706605814 0.0016856904818711277 0 0.03808709638065366 0.0016996218081675833 0
          0.03839928569524918 0.0017135531344640387 0 0.0387114750098447 0.001727484460760495 0
          0.03902366432444021 0.0017414157870569503 0 0.03933585363903572 0.0017553471133534059 0
          0.03964804295363124 0.0017692784396498619 0 0.03996023226822677 0.0017832097659463183 0
          0.029878647258386324 0.002695633136931134 0 0.03018988316732784 0.0027237126487741695 0
          0.03050111907626937 0.002751792160617203 0 0.0308123549852109 0.0027798716724602352 0
          0.031123590894152425 0.0028079511843032675 0 0.03143482680309395 0.0028360306961463 0
          0.03174606271203547 0.0028641102079893332 0 0.032057298620977 0.0028921897198323655 0
          0.03236853452991853 0.002920269231675398 0 0.03267977043886006 0.0029483487435184304 0
          0.032991006347801596 0.0029764282553614626 0 0.03330224225674313 0.0030045077672044957 0
          0.03361347816568465 0.003032587279047528 0 0.03392471407462617 0.003060666790890561 0
          0.034235949983567694 0.0030887463027335933 0 0.03454718589250924 0.0031168258145766255 0
          0.03485842180145077 0.0031449053264196577 0 0.03516965771039228 0.003172984838262691 0
          0.035480893619333806 0.0032010643501057257 0 0.03579212952827533 0.00322914386194876 0
          0.03610336543721687 0.003257223373791794 0 0.03641460134615839 0.0032853028856348267 0
          0.0367258372550999 0.0033133823974778594 0 0.0370370731640414 0.003341461909320892 0
          0.03734830907298293 0.003369541421163924 0 0.037659544981924455 0.003397620933006957 0
          0.03797078089086599 0.0034257004448499883 0 0.03828201679980751 0.003453779956693021 0
          0.03859325270874903 0.003481859468536054 0 0.038904488617690546 0.0035099389803790867 0
          0.03921572452663207 0.0035380184922221194 0 0.0395269604355736 0.0035660980040651525 0
          0.03983819634451513 0.0035941775159081877 0 0.02972251814004727 0.004070861753309568 0
          0.030032127704006102 0.004113266563239878 0 0.03034173726796492 0.004155671373170187 0
          0.030651346831923745 0.004198076183100494 0 0.030960956395882575 0.004240480993030801 0
          0.031270565959841415 0.00428288580296111 0 0.031580175523800234 0.004325290612891419 0
          0.031889785087759054 0.004367695422821727 0 0.03219939465171789 0.004410100232752036 0
          0.03250900421567673 0.004452505042682344 0 0.03281861377963557 0.004494909852612651 0
          0.03312822334359441 0.004537314662542959 0 0.03343783290755323 0.0045797194724732666 0
          0.03374744247151205 0.004622124282403576 0 0.03405705203547088 0.004664529092333885 0
          0.034366661599429714 0.004706933902264191 0 0.03467627116338853 0.004749338712194498 0
          0.03498588072734736 0.004791743522124807 0 0.03529549029130619 0.004834148332055116 0
          0.03560509985526502 0.004876553141985426 0 0.035914709419223846 0.004918957951915735 0
          0.036224318983182666 0.004961362761846045 0 0.036533928547141485 0.005003767571776352 0
          0.0368435381111003 0.00504617238170666 0 0.0371531476750591 0.005088577191636966 0
          0.03746275723901793 0.005130982001567274 0 0.03777236680297676 0.005173386811497582 0
          0.038081976366935597 0.005215791621427889 0 0.03839158593089442 0.005258196431358199 0
          0.03870119549485324 0.005300601241288508 0 0.03901080505881207 0.005343006051218815 0
          0.03932041462277091 0.0053854108611491236 0 0.03963002418672975 0.005427815671079435 0
          0.0294991610524972 0.005458891572364333 0 0.029806443980127384 0.00551575502624313 0
          0.030113726907757554 0.0055726184801219245 0 0.030421009835387727 0.005629481934000719 0
          0.030728292763017914 0.005686345387879513 0 0.031035575690648104 0.0057432088417583085 0
          0.03134285861827827 0.005800072295637107 0 0.03165014154590844 0.005856935749515903 0
          0.03195742447353864 0.005913799203394698 0 0.03226470740116884 0.005970662657273493 0
          0.03257199032879904 0.006027526111152287 0 0.032879273256429226 0.006084389565031083 0
          0.0331865561840594 0.006141253018909879 0 0.033493839111689565 0.006198116472788677 0
          0.03380112203931976 0.006254979926667473 0 0.03410840496694994 0.0063118433805462665 0
          0.03441568789458011 0.0063687068344250595 0 0.03472297082221027 0.006425570288303855 0
          0.03503025374984046 0.00648243374218265 0 0.035337536677470645 0.006539297196061445 0
          0.035644819605100825 0.006596160649940244 0 0.03595210253273099 0.006653024103819041 0
          0.03625938546036118 0.006709887557697836 0 0.03656666838799136 0.006766751011576631 0
          0.03687395131562152 0.006823614465455424 0 0.0371812342432517 0.0068804779193342176 0
          0.03748851717088189 0.006937341373213014 0 0.03779580009851208 0.006994204827091808 0
          0.03810308302614225 0.007051068280970605 0 0.03841036595377242 0.007107931734849403 0
          0.03871764888140261 0.007164795188728198 0 0.039024931809032805 0.007221658642606992 0
          0.039332214736662985 0.007278522096485786 0 0.029206281031282335 0.0068551548721933735 0
          0.02951051312535818 0.006926562735445388 0 0.02981474521943403 0.006997970598697402 0
          0.030118977313509886 0.007069378461949416 0 0.030423209407585753 0.007140786325201431 0
          0.030727441501661623 0.0072121941884534455 0 0.03103167359573748 0.007283602051705462 0
          0.031335905689813336 0.007355009914957479 0 0.03164013778388921 0.007426417778209495 0
          0.031944369877965076 0.0074978256414615085 0 0.032248601972040956 0.007569233504713523 0
          0.03255283406611682 0.0076406413679655375 0 0.03285706616019267 0.007712049231217552 0
          0.03316129825426853 0.007783457094469569 0 0.033465530348344395 0.007854864957721584 0
          0.033769762442420255 0.007926272820973598 0 0.03407399453649609 0.007997680684225612 0
          0.034378226630571926 0.008069088547477626 0 0.03468245872464778 0.00814049641072964 0
          0.03498669081872365 0.008211904273981654 0 0.0352909229127995 0.00828331213723367 0
          0.03559515500687535 0.008354720000485686 0 0.035899387100951224 0.008426127863737701 0
          0.036203619195027084 0.008497535726989714 0 0.03650785128910294 0.008568943590241728 0
          0.0368120833831788 0.008640351453493742 0 0.03711631547725466 0.008711759316745756 0
          0.03742054757133053 0.008783167179997772 0 0.03772477966540639 0.008854575043249787 0
          0.03802901175948224 0.008925982906501803 0 0.038333243853558095 0.008997390769753817 0
          0.03863747594763396 0.009068798633005828 0 0.038941708041709794 0.009140206496257835 0
          0.028841968745610926 0.008254746445361071 0 0.029142405920044356 0.008340733387500247 0
          0.0294428430944778 0.008426720329639427 0 0.029743280268911258 0.00851270727177861 0
          0.030043717443344713 0.008598694213917788 0 0.030344154617778167 0.008684681156056966 0
          0.030644591792211625 0.008770668098196148 0 0.030945028966645076 0.008856655040335327 0
          0.03124546614107854 0.008942641982474507 0 0.03154590331551199 0.009028628924613685 0
          0.031846340489945446 0.009114615866752863 0 0.0321467776643789 0.009200602808892042 0
          0.03244721483881235 0.009286589751031218 0 0.0327476520132458 0.009372576693170397 0
          0.03304808918767926 0.009458563635309577 0 0.0333485263621127 0.009544550577448756 0
          0.03364896353654612 0.009630537519587933 0 0.033949400710979544 0.009716524461727112 0
          0.03424983788541298 0.009802511403866287 0 0.03455027505984644 0.009888498346005466 0
          0.034850712234279886 0.009974485288144645 0 0.035151149408713334 0.010060472230283824 0
          0.035451586583146795 0.010146459172423003 0 0.03575202375758024 0.01023244611456218 0
          0.03605246093201369 0.010318433056701357 0 0.03635289810644714 0.010404419998840536 0
          0.0366533352808806 0.010490406940979713 0 0.036953772455314046 0.01057639388311889 0
          0.0372542096297475 0.01066238082525807 0 0.03755464680418094 0.010748367767397248 0
          0.037855083978614396 0.010834354709536425 0 0.038155521153047836 0.010920341651675599 0
          0.038455958327481235 0.011006328593814764 0 0.028404752965250298 0.009652461291458359 0
          0.02870063580863831 0.009753007763244387 0 0.028996518652026352 0.00985355423503042 0
          0.029292401495414396 0.009954100706816453 0 0.02958828433880243 0.010054647178602483 0
          0.02988416718219046 0.010155193650388509 0 0.03018005002557849 0.010255740122174535 0
          0.030475932868966518 0.010356286593960557 0 0.030771815712354548 0.010456833065746582 0
          0.031067698555742575 0.010557379537532609 0 0.031363581399130605 0.010657926009318633 0
          0.031659464242518635 0.010758472481104658 0 0.03195534708590666 0.010859018952890681 0
          0.03225122992929469 0.010959565424676708 0 0.03254711277268271 0.011060111896462733 0
          0.032842995616070736 0.011160658368248757 0 0.03313887845945874 0.011261204840034783 0
          0.03343476130284675 0.011361751311820809 0 0.033730644146234764 0.01146229778360683 0
          0.0340265269896228 0.011562844255392855 0 0.034322409833010825 0.011663390727178882 0
          0.03461829267639885 0.011763937198964906 0 0.03491417551978688 0.011864483670750929 0
          0.0352100583631749 0.011965030142536952 0 0.03550594120656293 0.012065576614322976 0
          0.03580182404995096 0.012166123086109001 0 0.036097706893338986 0.012266669557895026 0
          0.03639358973672702 0.012367216029681051 0 0.03668947258011505 0.012467762501467076 0
          0.03698535542350307 0.012568308973253102 0 0.037281238266891094 0.012668855445039125 0
          0.03757712111027911 0.012769401916825147 0 0.037873003953667106 0.012869948388611161 0
          0.02789364903187285 0.011042841286856165 0 0.028184207875954867 0.01115787088359426 0
          0.02847476672003691 0.011272900480332363 0 0.028765325564118947 0.011387930077070462 0
          0.02905588440820097 0.011502959673808552 0 0.02934644325228298 0.011617989270546638 0
          0.029637002096364985 0.011733018867284718 0 0.02992756094044699 0.011848048464022796 0
          0.030218119784528995 0.011963078060760881 0 0.030508678628611008 0.012078107657498966 0
          0.030799237472693024 0.012193137254237053 0 0.031089796316775033 0.012308166850975138 0
          0.03138035516085705 0.012423196447713225 0 0.03167091400493906 0.01253822604445131 0
          0.031961472849021066 0.012653255641189395 0 0.032252031693103075 0.012768285237927482 0
          0.03254259053718508 0.012883314834665567 0 0.03283314938126708 0.012998344431403654 0
          0.03312370822534909 0.013113374028141741 0 0.033414267069431104 0.013228403624879825 0
          0.03370482591351311 0.013343433221617912 0 0.03399538475759512 0.013458462818355995 0
          0.03428594360167713 0.013573492415094075 0 0.03457650244575913 0.013688522011832153 0
          0.034867061289841135 0.013803551608570237 0 0.03515762013392315 0.013918581205308322 0
          0.03544817897800516 0.014033610802046409 0 0.035738737822087176 0.014148640398784494 0
          0.036029296666169185 0.01426366999552258 0 0.036319855510251194 0.014378699592260664 0
          0.0366104143543332 0.014493729188998753 0 0.03690097319841522 0.014608758785736838 0
          0.03719153204249721 0.014723788382474927 0 0.02730820163270254 0.012420230416045359 0
          0.027592662066376554 0.012549607816212524 0 0.027877122500050575 0.012678985216379684 0
          0.028161582933724578 0.012808362616546835 0 0.028446043367398574 0.012937740016713982 0
          0.02873050380107256 0.013067117416881118 0 0.02901496423474653 0.013196494817048238 0
          0.029299424668420494 0.01332587221721536 0 0.029583885102094473 0.013455249617382497 0
          0.029868345535768462 0.013584627017549639 0 0.03015280596944245 0.013714004417716781 0
          0.030437266403116444 0.013843381817883922 0 0.03072172683679043 0.013972759218051066 0
          0.03100618727046442 0.014102136618218209 0 0.031290647704138405 0.01423151401838535 0
          0.0315751081378124 0.01436089141855249 0 0.03185956857148638 0.014490268818719634 0
          0.03214402900516037 0.014619646218886779 0 0.032428489438834356 0.014749023619053921 0
          0.03271294987250835 0.014878401019221063 0 0.032997410306182334 0.015007778419388204 0
          0.03328187073985632 0.01513715581955534 0 0.033566331173530285 0.015266533219722465 0
          0.03385079160720425 0.015395910619889586 0 0.034135252040878236 0.01552528802005672 0
          0.03441971247455223 0.01565466542022386 0 0.034704172908226215 0.015784042820391003 0
          0.03498863334190021 0.01591342022055815 0 0.03527309377557419 0.016042797620725288 0
          0.03555755420924818 0.01617217502089243 0 0.035842014642922165 0.01630155242105957 0
          0.03612647507659615 0.01643092982122672 0 0.036410935510270165 0.016560307221393882 0
          0.026648520204892535 0.013778837791680067 0 0.02692610895702687 0.013922367352010105 0
          0.027203697709161187 0.01406589691234012 0 0.027481286461295492 0.014209426472670122 0
          0.0277588752134298 0.014352956033000134 0 0.028036463965564095 0.014496485593330133 0
          0.028314052717698365 0.014640015153660106 0 0.02859164146983264 0.01478354471399008 0
          0.028869230221966934 0.014927074274320079 0 0.029146818974101235 0.015070603834650087 0
          0.02942440772623554 0.01521413339498009 0 0.02970199647836984 0.015357662955310094 0
          0.02997958523050414 0.0155011925156401 0 0.030257173982638445 0.01564472207597011 0
          0.030534762734772746 0.01578825163630011 0 0.030812351486907044 0.015931781196630114 0
          0.031089940239041353 0.01607531075696012 0 0.031367528991175654 0.016218840317290133 0
          0.03164511774330995 0.01636236987762014 0 0.03192270649544426 0.01650589943795015 0
          0.03220029524757856 0.016649428998280154 0 0.03247788399971286 0.016792958558610148 0
          0.03275547275184712 0.016936488118940125 0 0.033033061503981394 0.017080017679270105 0
          0.03331065025611569 0.0172235472396001 0 0.03358823900825 0.0173670767999301 0
          0.033865827760384305 0.017510606360260108 0 0.03414341651251861 0.017654135920590116 0
          0.03442100526465291 0.01779766548092012 0 0.03469859401678721 0.01794119504125012 0
          0.03497618276892151 0.018084724601580126 0 0.03525377152105583 0.018228254161910144 0
          0.03553136027319014 0.01837178372224017 0 0.025915305412422908 0.015112807329574507 0
          0.026185256510469018 0.015270232405924273 0 0.026455207608515097 0.01542765748227401 0
          0.026725158706561166 0.015585082558623743 0 0.02699510980460725 0.015742507634973486 0
          0.027265060902653324 0.015899932711323225 0 0.027535012000699372 0.016057357787672935 0
          0.027804963098745417 0.016214782864022646 0 0.028074914196791496 0.016372207940372387 0
          0.028344865294837575 0.01652963301672213 0 0.028614816392883647 0.01668705809307186 0
          0.028884767490929716 0.01684448316942159 0 0.0291547185889758 0.017001908245771337 0
          0.029424669687021877 0.017159333322121082 0 0.029694620785067946 0.017316758398470813 0
          0.029964571883114015 0.01747418347482054 0 0.030234522981160097 0.017631608551170286 0
          0.03050447407920618 0.01778903362752004 0 0.03077442517725225 0.01794645870386979 0
          0.031044376275298317 0.018103883780219536 0 0.0313143273733444 0.018261308856569267 0
          0.031584278471390476 0.01841873393291899 0 0.031854229569436524 0.018576159009268716 0
          0.03212418066748257 0.01873358408561844 0 0.03239413176552864 0.018891009161968165 0
          0.03266408286357474 0.0190484342383179 0 0.032934033961620826 0.019205859314667638 0
          0.0332039850596669 0.019363284391017383 0 0.03347393615771298 0.019520709467367114 0
          0.03374388725575904 0.019678134543716842 0 0.03401383835380513 0.019835559620066587 0
          0.034283789451851204 0.019992984696416333 0 0.03455374054989727 0.020150409772766067 0
          0.02510986533655952 0.016416292601554253 0 0.025371426433815365 0.01658729564948713 0
          0.02563298753107119 0.01675829869741998 0 0.02589454862832701 0.016929301745352832 0
          0.02615610972558285 0.0171003047932857 0 0.02641767082283869 0.017271307841218567 0
          0.026679231920094505 0.017442310889151408 0 0.02694079301735031 0.01761331393708425 0
          0.027202354114606156 0.017784316985017118 0 0.02746391521186199 0.017955320032949987 0
          0.02772547630911781 0.018126323080882828 0 0.02798703740637362 0.01829732612881567 0
          0.028248598503629457 0.018468329176748535 0 0.0285101596008853 0.018639332224681407 0
          0.02877172069814112 0.018810335272614255 0 0.029033281795396944 0.0189813383205471 0
          0.02929484289265278 0.01915234136847997 0 0.029556403989908622 0.01932334441641285 0
          0.02981796508716444 0.019494347464345727 0 0.030079526184420266 0.0196653505122786 0
          0.030341087281676102 0.019836353560211448 0 0.030602648378931945 0.020007356608144296 0
          0.030864209476187756 0.020178359656077154 0 0.03112577057344357 0.02034936270401002 0
          0.03138733167069941 0.020520365751942868 0 0.03164889276795525 0.020691368799875712 0
          0.0319104538652111 0.020862371847808574 0 0.03217201496246694 0.021033374895741433 0
          0.03243357605972275 0.02120437794367428 0 0.03269513715697857 0.021375380991607133 0
          0.03295669825423441 0.02154638403954 0 0.03321825935149025 0.02171738708747286 0
          0.03347982044874604 0.02188839013540569 0 0.024234120303270358 0.017683535085684033 0
          0.024486559056429436 0.01786773857615992 0 0.024738997809588496 0.01805194206663579 0
          0.024991436562747563 0.018236145557111665 0 0.02524387531590664 0.018420349047587548 0
          0.025496314069065718 0.018604552538063434 0 0.025748752822224778 0.01878875602853931 0
          0.026001191575383838 0.018972959519015176 0 0.02625363032854291 0.019157163009491062 0
          0.026506069081701986 0.019341366499966945 0 0.02675850783486103 0.01952556999044279 0
          0.027010946588020064 0.01970977348091864 0 0.02726338534117914 0.019893976971394525 0
          0.027515824094338216 0.020078180461870408 0 0.027768262847497276 0.020262383952346277 0
          0.028020701600656343 0.020446587442822153 0 0.028273140353815417 0.02063079093329804 0
          0.028525579106974494 0.020814994423773926 0 0.028778017860133558 0.020999197914249826 0
          0.02903045661329262 0.021183401404725712 0 0.029282895366451695 0.02136760489520158 0
          0.029535334119610773 0.021551808385677457 0 0.029787772872769833 0.021736011876153337 0
          0.030040211625928893 0.021920215366629223 0 0.030292650379087974 0.022104418857105096 0
          0.03054508913224705 0.022288622347580965 0 0.03079752788540611 0.022472825838056824 0
          0.03104996663856517 0.022657029328532693 0 0.03130240539172423 0.022841232819008555 0
          0.031554844144883284 0.023025436309484427 0 0.03180728289804237 0.023209639799960314 0
          0.03205972165120143 0.023393843290436193 0 0.03231216040436048 0.023578046780912045 0
          0.023290595627245284 0.0189089437919769 0 0.023533205998362432 0.01910591195647667 0
          0.02377581636947957 0.01930288012097643 0 0.02401842674059671 0.01949984828547619 0
          0.02426103711171386 0.019696816449975958 0 0.024503647482831 0.01989378461447573 0
          0.024746257853948142 0.020090752778975488 0 0.024988868225065283 0.020287720943475248 0
          0.025231478596182425 0.020484689107975018 0 0.025474088967299566 0.020681657272474775 0
          0.025716699338416676 0.020878625436974503 0 0.025959309709533786 0.021075593601474242 0
          0.026201920080650924 0.021272561765973995 0 0.02644453045176807 0.02146952993047376 0
          0.026687140822885213 0.021666498094973525 0 0.02692975119400235 0.021863466259473285 0
          0.0271723615651195 0.022060434423973055 0 0.027414971936236644 0.02225740258847282 0
          0.02765758230735378 0.022454370752972592 0 0.027900192678470926 0.022651338917472362 0
          0.02814280304958807 0.02284830708197212 0 0.02838541342070522 0.023045275246471885 0
          0.028628023791822353 0.023242243410971645 0 0.028870634162939498 0.023439211575471415 0
          0.029113244534056646 0.023636179739971182 0 0.029355854905173777 0.02383314790447093 0
          0.0295984652762909 0.024030116068970663 0 0.029841075647408018 0.024227084233470406 0
          0.03008368601852515 0.024424052397970155 0 0.030326296389642286 0.02462102056246992 0
          0.030568906760759434 0.02481798872696969 0 0.030811517131876576 0.025014956891469448 0
          0.03105412750299371 0.025211925055969208 0 0.02228240196677268 0.020087174081765802 0
          0.022514510320593234 0.02029641547845087 0 0.02274661867441379 0.020505656875135933 0
          0.022978727028234336 0.020714898271820992 0 0.023210835382054887 0.020924139668506057 0
          0.02344294373587544 0.021133381065191123 0 0.023675052089695996 0.02134262246187619 0
          0.023907160443516543 0.02155186385856125 0 0.0241392687973371 0.021761105255246316 0
          0.02437137715115765 0.02197034665193137 0 0.024603485504978175 0.022179588048616413 0
          0.024835593858798705 0.022388829445301458 0 0.025067702212619253 0.022598070841986517 0
          0.025299810566439804 0.022807312238671575 0 0.025531918920260355 0.02301655363535664 0
          0.02576402727408091 0.023225795032041703 0 0.025996135627901464 0.023435036428726772 0
          0.026228243981722014 0.023644277825411834 0 0.02646035233554257 0.0238535192220969 0
          0.02669246068936312 0.024062760618781966 0 0.02692456904318367 0.024272002015467024 0
          0.02715667739700422 0.024481243412152087 0 0.027388785750824773 0.024690484808837156 0
          0.027620894104645327 0.024899726205522218 0 0.027853002458465878 0.025108967602207283 0
          0.02808511081228643 0.02531820899889234 0 0.02831721916610696 0.025527450395577383 0
          0.02854932751992749 0.02573669179226243 0 0.028781435873748033 0.025945933188947484 0
          0.029013544227568588 0.026155174585632546 0 0.029245652581389135 0.026364415982317608 0
          0.02947776093520969 0.02657365737900267 0 0.029709869289030237 0.026782898775687736 0
          0.021213203435596413 0.021213203435596413 0 0.021434174304717214 0.021434174304717214 0
          0.02165514517383801 0.02165514517383801 0 0.021876116042958804 0.021876116042958804 0
          0.022097086912079605 0.022097086912079605 0 0.022318057781200402 0.022318057781200402 0
          0.022539028650321202 0.022539028650321202 0 0.022759999519442006 0.022759999519442 0
          0.0229809703885628 0.0229809703885628 0 0.023201941257683593 0.023201941257683593 0
          0.023422912126804377 0.023422912126804377 0 0.02364388299592516 0.02364388299592516 0
          0.023864853865045953 0.023864853865045953 0 0.024085824734166754 0.024085824734166754 0
          0.024306795603287547 0.02430679560328755 0 0.02452776647240835 0.02452776647240835 0
          0.02474873734152915 0.02474873734152915 0 0.02496970821064995 0.02496970821064995 0
          0.025190679079770746 0.025190679079770743 0 0.025411649948891547 0.025411649948891547 0
          0.02563262081801234 0.02563262081801234 0 0.02585359168713314 0.02585359168713314 0
          0.026074562556253938 0.026074562556253938 0 0.02629553342537474 0.02629553342537474 0
          0.026516504294495535 0.026516504294495535 0 0.026737475163616332 0.026737475163616336 0
          0.026958446032737123 0.026958446032737123 0 0.027179416901857913 0.027179416901857913 0
          0.0274003877709787 0.027400387770978703 0 0.02762135864009949 0.027621358640099493 0
          0.02784232950922029 0.02784232950922029 0 0.028063300378341084 0.028063300378341084 0
          0.02828427124746188 0.02828427124746188 0 0.02008717408176581 0.022282401966772683 0
          0.020296415478450874 0.022514510320593237 0 0.020505656875135933 0.022746618674413792 0
          0.020714898271821 0.02297872702823434 0 0.02092413966850606 0.023210835382054894 0
          0.021133381065191126 0.023442943735875445 0 0.02134262246187619 0.023675052089696 0
          0.021551863858561254 0.023907160443516547 0 0.021761105255246316 0.0241392687973371 0
          0.02197034665193137 0.024371377151157645 0 0.022179588048616417 0.024603485504978175 0
          0.022388829445301458 0.024835593858798705 0 0.022598070841986513 0.025067702212619253 0
          0.022807312238671575 0.025299810566439807 0 0.023016553635356644 0.025531918920260358 0
          0.02322579503204171 0.025764027274080913 0 0.023435036428726776 0.02599613562790146 0
          0.023644277825411834 0.026228243981722014 0 0.023853519222096903 0.02646035233554257 0
          0.02406276061878197 0.02669246068936312 0 0.02427200201546703 0.026924569043183674 0
          0.02448124341215209 0.027156677397004222 0 0.02469048480883716 0.027388785750824776 0
          0.02489972620552222 0.02762089410464533 0 0.02510896760220729 0.02785300245846588 0
          0.025318208998892346 0.028085110812286436 0 0.025527450395577418 0.02831721916610699 0
          0.02573669179226247 0.028549327519927534 0 0.025945933188947515 0.028781435873748068 0
          0.02615517458563256 0.029013544227568595 0 0.02636441598231761 0.029245652581389135 0
          0.026573657379002674 0.02947776093520969 0 0.026782898775687736 0.029709869289030244 0
          0.0189089437919769 0.02329059562724528 0 0.019105911956476672 0.02353320599836243 0
          0.019302880120976428 0.023775816369479563 0 0.01949984828547619 0.024018426740596708 0
          0.019696816449975955 0.024261037111713856 0 0.019893784614475725 0.024503647482831 0
          0.020090752778975488 0.02474625785394814 0 0.020287720943475245 0.024988868225065283 0
          0.020484689107975015 0.025231478596182428 0 0.02068165727247477 0.025474088967299562 0
          0.020878625436974503 0.025716699338416672 0 0.02107559360147424 0.025959309709533786 0
          0.021272561765974 0.02620192008065092 0 0.02146952993047376 0.026444530451768068 0
          0.021666498094973532 0.02668714082288521 0 0.0218634662594733 0.026929751194002347 0
          0.022060434423973062 0.027172361565119495 0 0.022257402588472818 0.02741497193623664 0
          0.02245437075297259 0.027657582307353778 0 0.02265133891747236 0.027900192678470923 0
          0.022848307081972115 0.028142803049588067 0 0.023045275246471878 0.028385413420705215 0
          0.02324224341097165 0.028628023791822353 0 0.02343921157547141 0.028870634162939494 0
          0.023636179739971175 0.02911324453405664 0 0.023833147904470935 0.02935585490517379 0
          0.024030116068970705 0.029598465276290932 0 0.024227084233470465 0.029841075647408073 0
          0.024424052397970193 0.030083686018525183 0 0.024621020562469925 0.030326296389642297 0
          0.024817988726969685 0.03056890676075943 0 0.025014956891469445 0.030811517131876576 0
          0.025211925055969208 0.03105412750299371 0 0.017683535085684033 0.024234120303270358 0
          0.01786773857615992 0.024486559056429436 0 0.018051942066635792 0.0247389978095885 0
          0.018236145557111665 0.02499143656274756 0 0.018420349047587548 0.02524387531590664 0
          0.018604552538063434 0.02549631406906571 0 0.018788756028539303 0.025748752822224778 0
          0.018972959519015172 0.026001191575383838 0 0.019157163009491062 0.02625363032854291 0
          0.01934136649996694 0.026506069081701986 0 0.01952556999044279 0.02675850783486103 0
          0.019709773480918645 0.027010946588020068 0 0.01989397697139452 0.027263385341179138 0
          0.02007818046187041 0.027515824094338216 0 0.02026238395234631 0.027768262847497276 0
          0.020446587442822194 0.028020701600656343 0 0.020630790933298063 0.028273140353815417 0
          0.02081499442377394 0.028525579106974494 0 0.020999197914249822 0.028778017860133558 0
          0.021183401404725712 0.02903045661329262 0 0.02136760489520158 0.0292828953664517 0
          0.021551808385677454 0.029535334119610773 0 0.021736011876153337 0.02978777287276984 0
          0.021920215366629223 0.030040211625928893 0 0.022104418857105096 0.03029265037908797 0
          0.02228862234758097 0.030545089132247055 0 0.02247282583805685 0.03079752788540614 0
          0.022657029328532734 0.031049966638565213 0 0.022841232819008583 0.031302405391724256 0
          0.023025436309484434 0.0315548441448833 0 0.023209639799960314 0.03180728289804236 0
          0.023393843290436193 0.03205972165120143 0 0.02357804678091204 0.032312160404360475 0
          0.016416292601554253 0.02510986533655952 0 0.01658729564948713 0.025371426433815365 0
          0.01675829869741998 0.02563298753107119 0 0.016929301745352832 0.02589454862832701 0
          0.017100304793285698 0.026156109725582844 0 0.017271307841218567 0.02641767082283868 0
          0.017442310889151408 0.0266792319200945 0 0.01761331393708425 0.02694079301735031 0
          0.017784316985017118 0.027202354114606152 0 0.017955320032949983 0.02746391521186199 0
          0.018126323080882824 0.027725476309117807 0 0.01829732612881567 0.027987037406373625 0
          0.018468329176748535 0.028248598503629457 0 0.018639332224681414 0.0285101596008853 0
          0.018810335272614293 0.028771720698141125 0 0.018981338320547162 0.029033281795396937 0
          0.01915234136848001 0.02929484289265278 0 0.019323344416412862 0.029556403989908622 0
          0.019494347464345727 0.02981796508716444 0 0.0196653505122786 0.030079526184420263 0
          0.019836353560211448 0.030341087281676105 0 0.020007356608144296 0.030602648378931945 0
          0.020178359656077154 0.03086420947618776 0 0.02034936270401002 0.03112577057344357 0
          0.020520365751942868 0.03138733167069941 0 0.020691368799875716 0.03164889276795526 0
          0.020862371847808585 0.03191045386521111 0 0.02103337489574145 0.032172014962466945 0
          0.02120437794367429 0.03243357605972276 0 0.021375380991607136 0.032695137156978575 0
          0.02154638403954 0.03295669825423441 0 0.021717387087472863 0.03321825935149025 0
          0.021888390135405694 0.03347982044874604 0 0.015112807329574509 0.025915305412422915 0
          0.015270232405924277 0.026185256510469018 0 0.015427657482274015 0.0264552076085151 0
          0.015585082558623745 0.026725158706561156 0 0.01574250763497349 0.026995109804607217 0
          0.015899932711323228 0.027265060902653286 0 0.01605735778767294 0.02753501200069934 0
          0.01621478286402265 0.027804963098745413 0 0.016372207940372387 0.0280749141967915 0
          0.016529633016722133 0.02834486529483758 0 0.016687058093071864 0.02861481639288365 0
          0.016844483169421595 0.02888476749092972 0 0.017001908245771337 0.0291547185889758 0
          0.01715933332212109 0.029424669687021877 0 0.017316758398470845 0.02969462078506795 0
          0.017474183474820583 0.029964571883114015 0 0.017631608551170314 0.0302345229811601 0
          0.01778903362752005 0.030504474079206187 0 0.017946458703869794 0.030774425177252252 0
          0.01810388378021954 0.03104437627529832 0 0.018261308856569267 0.0313143273733444 0
          0.018418733932918995 0.03158427847139048 0 0.018576159009268716 0.031854229569436524 0
          0.01873358408561844 0.03212418066748258 0 0.01889100916196817 0.03239413176552865 0
          0.019048434238317896 0.03266408286357474 0 0.019205859314667645 0.032934033961620826 0
          0.019363284391017387 0.03320398505966691 0 0.01952070946736712 0.03347393615771298 0
          0.019678134543716842 0.033743887255759046 0 0.01983555962006659 0.034013838353805136 0
          0.019992984696416336 0.03428378945185121 0 0.020150409772766067 0.03455374054989727 0
          0.013778837791680064 0.026648520204892535 0 0.013922367352010103 0.026926108957026865 0
          0.01406589691234012 0.027203697709161177 0 0.014209426472670126 0.027481286461295468 0
          0.014352956033000134 0.027758875213429745 0 0.014496485593330131 0.028036463965564022 0
          0.014640015153660108 0.028314052717698313 0 0.014783544713990083 0.02859164146983261 0
          0.01492707427432008 0.028869230221966927 0 0.015070603834650087 0.02914681897410123 0
          0.01521413339498009 0.029424407726235537 0 0.015357662955310094 0.029701996478369838 0
          0.0155011925156401 0.02997958523050414 0 0.015644722075970112 0.030257173982638445 0
          0.01578825163630012 0.030534762734772746 0 0.015931781196630128 0.030812351486907044 0
          0.01607531075696013 0.031089940239041353 0 0.016218840317290133 0.031367528991175654 0
          0.01636236987762014 0.03164511774330995 0 0.01650589943795015 0.03192270649544426 0
          0.016649428998280154 0.03220029524757856 0 0.016792958558610148 0.03247788399971286 0
          0.01693648811894013 0.032755472751847134 0 0.017080017679270112 0.0330330615039814 0
          0.017223547239600102 0.0333106502561157 0 0.017367076799930107 0.03358823900825001 0
          0.017510606360260115 0.03386582776038431 0 0.017654135920590123 0.03414341651251862 0
          0.017797665480920124 0.034421005264652915 0 0.01794119504125012 0.03469859401678721 0
          0.018084724601580133 0.034976182768921525 0 0.018228254161910144 0.03525377152105583 0
          0.01837178372224017 0.03553136027319014 0 0.01242023041604536 0.02730820163270254 0
          0.012549607816212527 0.02759266206637655 0 0.012678985216379685 0.027877122500050543 0
          0.012808362616546836 0.028161582933724526 0 0.012937740016713982 0.028446043367398494 0
          0.013067117416881118 0.028730503801072466 0 0.013196494817048243 0.029014964234746452 0
          0.013325872217215365 0.02929942466842045 0 0.013455249617382498 0.029583885102094455 0
          0.013584627017549639 0.029868345535768455 0 0.013714004417716781 0.030152805969442455 0
          0.013843381817883922 0.030437266403116444 0 0.013972759218051066 0.03072172683679043 0
          0.014102136618218209 0.03100618727046442 0 0.01423151401838535 0.031290647704138405 0
          0.014360891418552494 0.0315751081378124 0 0.014490268818719636 0.03185956857148638 0
          0.014619646218886777 0.03214402900516037 0 0.01474902361905392 0.032428489438834356 0
          0.014878401019221063 0.03271294987250835 0 0.015007778419388208 0.03299741030618234 0
          0.015137155819555347 0.033281870739856334 0 0.01526653321972247 0.033566331173530306 0
          0.015395910619889592 0.033850791607204264 0 0.015525288020056729 0.03413525204087825 0
          0.015654665420223868 0.03441971247455224 0 0.01578404282039101 0.03470417290822623 0
          0.015913420220558156 0.03498863334190022 0 0.0160427976207253 0.03527309377557421 0
          0.016172175020892438 0.03555755420924819 0 0.01630155242105958 0.035842014642922186 0
          0.016430929821226726 0.03612647507659617 0 0.016560307221393882 0.03641093551027016 0
          0.011042841286856163 0.027893649031872848 0 0.01115787088359426 0.028184207875954857 0
          0.011272900480332361 0.02847476672003687 0 0.011387930077070462 0.028765325564118874 0
          0.01150295967380855 0.029055884408200887 0 0.01161798927054664 0.029346443252282892 0
          0.011733018867284721 0.029637002096364908 0 0.011848048464022803 0.029927560940446934 0
          0.011963078060760884 0.03021811978452897 0 0.012078107657498966 0.030508678628611004 0
          0.012193137254237051 0.030799237472693024 0 0.012308166850975138 0.031089796316775036 0
          0.012423196447713225 0.03138035516085705 0 0.01253822604445131 0.03167091400493906 0
          0.012653255641189394 0.031961472849021066 0 0.01276828523792748 0.032252031693103075 0
          0.012883314834665567 0.032542590537185084 0 0.012998344431403654 0.032833149381267086 0
          0.013113374028141741 0.03312370822534909 0 0.013228403624879828 0.03341426706943111 0
          0.013343433221617918 0.03370482591351313 0 0.013458462818356005 0.03399538475759515 0
          0.013573492415094085 0.03428594360167715 0 0.013688522011832164 0.034576502445759154 0
          0.013803551608570247 0.03486706128984117 0 0.013918581205308332 0.03515762013392318 0
          0.014033610802046417 0.03544817897800519 0 0.014148640398784504 0.035738737822087197 0
          0.014263669995522593 0.03602929666616921 0 0.014378699592260678 0.03631985551025122 0
          0.014493729188998761 0.03661041435433323 0 0.014608758785736847 0.03690097319841523 0
          0.014723788382474927 0.03719153204249721 0 0.009652461291458359 0.028404752965250298 0
          0.009753007763244387 0.028700635808638304 0 0.00985355423503042 0.028996518652026324 0
          0.009954100706816453 0.02929240149541435 0 0.010054647178602483 0.029588284338802378 0
          0.010155193650388509 0.029884167182190412 0 0.010255740122174535 0.030180050025578446 0
          0.010356286593960562 0.030475932868966486 0 0.010456833065746586 0.030771815712354534 0
          0.010557379537532609 0.03106769855574257 0 0.010657926009318633 0.03136358139913061 0
          0.010758472481104658 0.031659464242518635 0 0.010859018952890683 0.03195534708590666 0
          0.010959565424676708 0.03225122992929469 0 0.011060111896462731 0.03254711277268271 0
          0.011160658368248757 0.032842995616070736 0 0.011261204840034783 0.03313887845945874 0
          0.011361751311820809 0.03343476130284675 0 0.011462297783606834 0.03373064414623477 0
          0.011562844255392859 0.0340265269896228 0 0.011663390727178886 0.03432240983301083 0
          0.011763937198964914 0.03461829267639887 0 0.011864483670750938 0.0349141755197869 0
          0.011965030142536961 0.03521005836317492 0 0.012065576614322985 0.03550594120656295 0
          0.01216612308610901 0.03580182404995098 0 0.012266669557895031 0.036097706893339 0
          0.01236721602968106 0.03639358973672704 0 0.012467762501467083 0.03668947258011507 0
          0.012568308973253109 0.03698535542350309 0 0.01266885544503913 0.037281238266891115 0
          0.012769401916825152 0.03757712111027912 0 0.012869948388611163 0.037873003953667106 0
          0.008254746445361071 0.028841968745610926 0 0.008340733387500248 0.029142405920044356 0
          0.008426720329639427 0.029442843094477786 0 0.00851270727177861 0.02974328026891124 0
          0.00859869421391779 0.030043717443344695 0 0.008684681156056969 0.030344154617778153 0
          0.008770668098196151 0.03064459179221161 0 0.00885665504033533 0.030945028966645072 0
          0.008942641982474507 0.031245466141078534 0 0.009028628924613685 0.03154590331551199 0
          0.009114615866752863 0.031846340489945446 0 0.00920060280889204 0.0321467776643789 0
          0.009286589751031218 0.032447214838812355 0 0.009372576693170398 0.0327476520132458 0
          0.009458563635309577 0.03304808918767926 0 0.009544550577448756 0.0333485263621127 0
          0.009630537519587933 0.03364896353654612 0 0.009716524461727112 0.033949400710979544 0
          0.009802511403866291 0.034249837885412984 0 0.00988849834600547 0.03455027505984644 0
          0.00997448528814465 0.034850712234279886 0 0.010060472230283828 0.03515114940871334 0
          0.010146459172423005 0.0354515865831468 0 0.010232446114562184 0.03575202375758025 0
          0.010318433056701357 0.03605246093201369 0 0.010404419998840534 0.036352898106447144 0
          0.010490406940979715 0.0366533352808806 0 0.010576393883118894 0.03695377245531405 0
          0.010662380825258071 0.0372542096297475 0 0.010748367767397252 0.037554646804180955 0
          0.010834354709536429 0.037855083978614396 0 0.010920341651675602 0.03815552115304784 0
          0.011006328593814764 0.038455958327481235 0 0.0068551548721933735 0.029206281031282335 0
          0.006926562735445388 0.029510513125358184 0 0.006997970598697402 0.02981474521943403 0
          0.007069378461949417 0.030118977313509886 0 0.007140786325201433 0.03042320940758575 0
          0.00721219418845345 0.03072744150166162 0 0.007283602051705466 0.031031673595737486 0
          0.007355009914957482 0.03133590568981335 0 0.007426417778209497 0.031640137783889216 0
          0.007497825641461509 0.03194436987796508 0 0.007569233504713523 0.03224860197204095 0
          0.0076406413679655375 0.032552834066116816 0 0.007712049231217552 0.03285706616019267 0
          0.00778345709446957 0.03316129825426853 0 0.007854864957721584 0.033465530348344395 0
          0.0079262728209736 0.033769762442420255 0 0.007997680684225612 0.03407399453649609 0
          0.008069088547477628 0.034378226630571926 0 0.008140496410729642 0.03468245872464778 0
          0.008211904273981658 0.03498669081872365 0 0.008283312137233675 0.03529092291279951 0
          0.00835472000048569 0.03559515500687538 0 0.008426127863737705 0.035899387100951245 0
          0.008497535726989719 0.036203619195027105 0 0.00856894359024173 0.03650785128910295 0
          0.008640351453493742 0.03681208338317879 0 0.00871175931674576 0.037116315477254656 0
          0.008783167179997777 0.03742054757133053 0 0.008854575043249793 0.03772477966540639 0
          0.008925982906501805 0.03802901175948225 0 0.008997390769753819 0.03833324385355811 0
          0.00906879863300583 0.03863747594763396 0 0.009140206496257835 0.0389417080417098 0
          0.005458891572364334 0.0294991610524972 0 0.005515755026243129 0.02980644398012738 0
          0.005572618480121924 0.030113726907757554 0 0.00562948193400072 0.030421009835387723 0
          0.0056863453878795165 0.030728292763017914 0 0.005743208841758315 0.031035575690648104 0
          0.005800072295637112 0.031342858618278284 0 0.005856935749515907 0.03165014154590847 0
          0.0059137992033947 0.03195742447353865 0 0.005970662657273495 0.032264707401168845 0
          0.006027526111152289 0.03257199032879904 0 0.006084389565031085 0.032879273256429226 0
          0.006141253018909881 0.0331865561840594 0 0.006198116472788679 0.033493839111689565 0
          0.0062549799266674744 0.03380112203931976 0 0.006311843380546268 0.03410840496694994 0
          0.006368706834425062 0.03441568789458011 0 0.006425570288303858 0.03472297082221027 0
          0.006482433742182652 0.03503025374984046 0 0.006539297196061448 0.035337536677470645 0
          0.006596160649940247 0.03564481960510082 0 0.006653024103819045 0.035952102532731 0
          0.0067098875576978405 0.03625938546036119 0 0.006766751011576633 0.03656666838799137 0
          0.0068236144654554255 0.03687395131562153 0 0.006880477919334219 0.0371812342432517 0
          0.0069373413732130166 0.03748851717088189 0 0.006994204827091814 0.03779580009851208 0
          0.007051068280970611 0.03810308302614226 0 0.0071079317348494075 0.03841036595377244 0
          0.0071647951887282004 0.03871764888140262 0 0.007221658642606993 0.0390249318090328 0
          0.007278522096485786 0.03933221473666298 0 0.004070861753309572 0.029722518140047265 0
          0.004113266563239879 0.030032127704006095 0 0.004155671373170186 0.030341737267964915 0
          0.004198076183100494 0.03065134683192374 0 0.004240480993030804 0.030960956395882575 0
          0.0042828858029611136 0.031270565959841415 0 0.0043252906128914215 0.031580175523800234 0
          0.00436769542282173 0.03188978508775906 0 0.004410100232752039 0.032199394651717894 0
          0.004452505042682347 0.032509004215676734 0 0.004494909852612655 0.03281861377963557 0
          0.004537314662542962 0.0331282233435944 0 0.004579719472473272 0.03343783290755322 0
          0.0046221242824035814 0.03374744247151204 0 0.00466452909233389 0.034057052035470874 0
          0.0047069339022641965 0.03436666159942971 0 0.0047493387121945035 0.03467627116338853 0
          0.004791743522124811 0.03498588072734735 0 0.0048341483320551186 0.03529549029130618 0
          0.0048765531419854265 0.03560509985526501 0 0.004918957951915737 0.03591470941922382 0
          0.004961362761846048 0.03622431898318264 0 0.0050037675717763555 0.03653392854714147 0
          0.005046172381706662 0.0368435381111003 0 0.005088577191636967 0.03715314767505912 0
          0.005130982001567275 0.03746275723901793 0 0.005173386811497584 0.03777236680297676 0
          0.005215791621427895 0.038081976366935597 0 0.005258196431358204 0.03839158593089443 0
          0.005300601241288514 0.03870119549485325 0 0.005343006051218822 0.039010805058812076 0
          0.005385410861149128 0.039320414622770916 0 0.005427815671079435 0.03963002418672975 0
          0.0026956331369311416 0.029878647258386324 0 0.0027237126487741725 0.03018988316732784 0
          0.0027517921606172043 0.03050111907626937 0 0.002779871672460237 0.0308123549852109 0
          0.002807951184303269 0.031123590894152425 0 0.0028360306961463027 0.03143482680309395 0
          0.0028641102079893354 0.03174606271203548 0 0.002892189719832368 0.032057298620977 0
          0.002920269231675403 0.03236853452991854 0 0.0029483487435184373 0.03267977043886007 0
          0.00297642825536147 0.032991006347801596 0 0.0030045077672045026 0.03330224225674312 0
          0.003032587279047536 0.03361347816568465 0 0.0030606667908905693 0.033924714074626175 0
          0.003088746302733602 0.034235949983567694 0 0.003116825814576634 0.03454718589250924 0
          0.0031449053264196664 0.03485842180145077 0 0.0031729848382626986 0.03516965771039229 0
          0.003201064350105731 0.035480893619333806 0 0.003229143861948764 0.035792129528275325 0
          0.003257223373791797 0.03610336543721684 0 0.0032853028856348297 0.03641460134615835 0
          0.003313382397477862 0.03672583725509987 0 0.0033414619093208946 0.037037073164041395 0
          0.0033695414211639273 0.03734830907298292 0 0.003397620933006959 0.037659544981924434 0
          0.0034257004448499918 0.03797078089086597 0 0.0034537799566930257 0.03828201679980751 0
          0.003481859468536061 0.03859325270874904 0 0.0035099389803790954 0.03890448861769055 0
          0.0035380184922221285 0.03921572452663208 0 0.00356609800406516 0.0395269604355736 0
          0.0035941775159081908 0.03983819634451514 0 0.0013374073244597417 0.02997017420117008 0
          0.0013513386507561966 0.03028236351576558 0 0.0013652699770526516 0.03059455283036111 0
          0.0013792013033491074 0.03090674214495664 0 0.001393132629645563 0.031218931459552162 0
          0.0014070639559420185 0.03153112077414768 0 0.001420995282238474 0.031843310088743186 0
          0.00143492660853493 0.032155499403338714 0 0.0014488579348313861 0.03246768871793424 0
          0.0014627892611278426 0.03277987803252978 0 0.0014767205874242984 0.033092067347125304 0
          0.0014906519137207544 0.03340425666172082 0 0.001504583240017211 0.03371644597631633 0
          0.0015185145663136669 0.03402863529091185 0 0.0015324458926101229 0.03434082460550738 0
          0.0015463772189065787 0.03465301392010292 0 0.0015603085452030342 0.03496520323469845 0
          0.0015742398714994898 0.035277392549293955 0 0.0015881711977959452 0.03558958186388946 0
          0.0016021025240924012 0.03590177117848498 0 0.0016160338503888568 0.03621396049308051 0
          0.0016299651766853126 0.036526149807676045 0 0.0016438965029817682 0.03683833912227156 0
          0.0016578278292782237 0.03715052843686707 0 0.0016717591555746793 0.03746271775146257 0
          0.0016856904818711347 0.0377749070660581 0 0.0016996218081675903 0.038087096380653634 0
          0.0017135531344640465 0.038399285695249176 0 0.0017274844607605032 0.0387114750098447 0
          0.0017414157870569598 0.03902366432444021 0 0.0017553471133534154 0.03933585363903572 0
          0.0017692784396498708 0.03964804295363124 0 0.0017832097659463255 0.03996023226822677 0
          4.9065389333868e-18 0.03 0 4.98320360422097e-18 0.0303125 0
          5.05986827505514e-18 0.030625 0 5.1365329458893084e-18 0.0309375 0
          5.2131976167234755e-18 0.03125 0 5.289862287557642e-18 0.0315625 0
          5.36652695839181e-18 0.031875 0 5.44319162922598e-18 0.0321875 0
          5.51985630006015e-18 0.0325 0 5.59652097089432e-18 0.0328125 0
          5.67318564172849e-18 0.033125 0 5.749850312562659e-18 0.0334375 0
          5.8265149833968254e-18 0.03375 0 5.903179654230992e-18 0.0340625 0
          5.97984432506516e-18 0.034375 0 6.05650899589933e-18 0.034687499999999996 0
          6.1331736667335e-18 0.035 0 6.2098383375676705e-18 0.0353125 0
          6.28650300840184e-18 0.035625 0 6.363167679236008e-18 0.0359375 0
          6.4398323500701754e-18 0.03625 0 6.516497020904342e-18 0.0365625 0
          6.59316169173851e-18 0.036875 0 6.66982636257268e-18 0.0371875 0
          6.7464910334068496e-18 0.0375 0 6.82315570424102e-18 0.0378125 0
          6.89982037507519e-18 0.038125 0 6.976485045909359e-18 0.0384375 0
          7.053149716743525e-18 0.03875 0 7.129814387577692e-18 0.0390625 0
          7.206479058411861e-18 0.039375 0 7.28314372924603e-18 0.0396875 0
          7.3598084000802e-18 0.04 0
          <InformationKey name="L2_NORM_RANGE" location="vtkDataArray" length="2">
            <Value index="0">
              0.03
            </Value>
            <Value index="1">
              0.04
            </Value>
          </InformationKey>
        </DataArray>
      </Points>
      <Cells>
        <DataArray type="Int64" Name="connectivity" format="ascii" RangeMin="0" RangeMax="1088">
          0 33 34 1 1 34
          35 2 2 35 36 3
          3 36 37 4 4 37
          38 5 5 38 39 6
          6 39 40 7 7 40
          41 8 8 41 42 9
          9 42 43 10 10 43
          44 11 11 44 45 12
          12 45 46 13 13 46
          47 14 14 47 48 15
          15 48 49 16 16 49
          50 17 17 50 51 18
          18 51 52 19 19 52
          53 20 20 53 54 21
          21 54 55 22 22 55
          56 23 23 56 57 24
          24 57 58 25 25 58
          59 26 26 59 60 27
          27 60 61 28 28 61
          62 29 29 62 63 30
          30 63 64 31 31 64
          65 32 33 66 67 34
          34 67 68 35 35 68
          69 36 36 69 70 37
          37 70 71 38 38 71
          72 39 39 72 73 40
          40 73 74 41 41 74
          75 42 42 75 76 43
          43 76 77 44 44 77
          78 45 45 78 79 46
          46 79 80 47 47 80
          81 48 48 81 82 49
          49 82 83 50 50 83
          84 51 51 84 85 52
          52 85 86 53 53 86
          87 54 54 87 88 55
          55 88 89 56 56 89
          90 57 57 90 91 58
          58 91 92 59 59 92
          93 60 60 93 94 61
          61 94 95 62 62 95
          96 63 63 96 97 64
          64 97 98 65 66 99
          100 67 67 100 101 68
          68 101 102 69 69 102
          103 70 70 103 104 71
          71 104 105 72 72 105
          106 73 73 106 107 74
          74 107 108 75 75 108
          109 76 76 109 110 77
          77 110 111 78 78 111
          112 79 79 112 113 80
          80 113 114 81 81 114
          115 82 82 115 116 83
          83 116 117 84 84 117
          118 85 85 118 119 86
          86 119 120 87 87 120
          121 88 88 121 122 89
          89 122 123 90 90 123
          124 91 91 124 125 92
          92 125 126 93 93 126
          127 94 94 127 128 95
          95 128 129 96 96 129
          130 97 97 130 131 98
          99 132 133 100 100 133
          134 101 101 134 135 102
          102 135 136 103 103 136
          137 104 104 137 138 105
          105 138 139 106 106 139
          140 107 107 140 141 108
          108 141 142 109 109 142
          143 110 110 143 144 111
          111 144 145 112 112 145
          146 113 113 146 147 114
          114 147 148 115 115 148
          149 116 116 149 150 117
          117 150 151 118 118 151
          152 119 119 152 153 120
          120 153 154 121 121 154
          155 122 122 155 156 123
          123 156 157 124 124 157
          158 125 125 158 159 126
          126 159 160 127 127 160
          161 128 128 161 162 129
          129 162 163 130 130 163
          164 131 132 165 166 133
          133 166 167 134 134 167
          168 135 135 168 169 136
          136 169 170 137 137 170
          171 138 138 171 172 139
          139 172 173 140 140 173
          174 141 141 174 175 142
          142 175 176 143 143 176
          177 144 144 177 178 145
          145 178 179 146 146 179
          180 147 147 180 181 148
          148 181 182 149 149 182
          183 150 150 183 184 151
          151 184 185 152 152 185
          186 153 153 186 187 154
          154 187 188 155 155 188
          189 156 156 189 190 157
          157 190 191 158 158 191
          192 159 159 192 193 160
          160 193 194 161 161 194
          195 162 162 195 196 163
          163 196 197 164 165 198
          199 166 166 199 200 167
          167 200 201 168 168 201
          202 169 169 202 203 170
          170 203 204 171 171 204
          205 172 172 205 206 173
          173 206 207 174 174 207
          208 175 175 208 209 176
          176 209 210 177 177 210
          211 178 178 211 212 179
          179 212 213 180 180 213
          214 181 181 214 215 182
          182 215 216 183 183 216
          217 184 184 217 218 185
          185 218 219 186 186 219
          220 187 187 220 221 188
          188 221 222 189 189 222
          223 190 190 223 224 191
          191 224 225 192 192 225
          226 193 193 226 227 194
          194 227 228 195 195 228
          229 196 196 229 230 197
          198 231 232 199 199 232
          233 200 200 233 234 201
          201 234 235 202 202 235
          236 203 203 236 237 204
          204 237 238 205 205 238
          239 206 206 239 240 207
          207 240 241 208 208 241
          242 209 209 242 243 210
          210 243 244 211 211 244
          245 212 212 245 246 213
          213 246 247 214 214 247
          248 215 215 248 249 216
          216 249 250 217 217 250
          251 218 218 251 252 219
          219 252 253 220 220 253
          254 221 221 254 255 222
          222 255 256 223 223 256
          257 224 224 257 258 225
          225 258 259 226 226 259
          260 227 227 260 261 228
          228 261 262 229 229 262
          263 230 231 264 265 232
          232 265 266 233 233 266
          267 234 234 267 268 235
          235 268 269 236 236 269
          270 237 237 270 271 238
          238 271 272 239 239 272
          273 240 240 273 274 241
          241 274 275 242 242 275
          276 243 243 276 277 244
          244 277 278 245 245 278
          279 246 246 279 280 247
          247 280 281 248 248 281
          282 249 249 282 283 250
          250 283 284 251 251 284
          285 252 252 285 286 253
          253 286 287 254 254 287
          288 255 255 288 289 256
          256 289 290 257 257 290
          291 258 258 291 292 259
          259 292 293 260 260 293
          294 261 261 294 295 262
          262 295 296 263 264 297
          298 265 265 298 299 266
          266 299 300 267 267 300
          301 268 268 301 302 269
          269 302 303 270 270 303
          304 271 271 304 305 272
          272 305 306 273 273 306
          307 274 274 307 308 275
          275 308 309 276 276 309
          310 277 277 310 311 278
          278 311 312 279 279 312
          313 280 280 313 314 281
          281 314 315 282 282 315
          316 283 283 316 317 284
          284 317 318 285 285 318
          319 286 286 319 320 287
          287 320 321 288 288 321
          322 289 289 322 323 290
          290 323 324 291 291 324
          325 292 292 325 326 293
          293 326 327 294 294 327
          328 295 295 328 329 296
          297 330 331 298 298 331
          332 299 299 332 333 300
          300 333 334 301 301 334
          335 302 302 335 336 303
          303 336 337 304 304 337
          338 305 305 338 339 306
          306 339 340 307 307 340
          341 308 308 341 342 309
          309 342 343 310 310 343
          344 311 311 344 345 312
          312 345 346 313 313 346
          347 314 314 347 348 315
          315 348 349 316 316 349
          350 317 317 350 351 318
          318 351 352 319 319 352
          353 320 320 353 354 321
          321 354 355 322 322 355
          356 323 323 356 357 324
          324 357 358 325 325 358
          359 326 326 359 360 327
          327 360 361 328 328 361
          362 329 330 363 364 331
          331 364 365 332 332 365
          366 333 333 366 367 334
          334 367 368 335 335 368
          369 336 336 369 370 337
          337 370 371 338 338 371
          372 339 339 372 373 340
          340 373 374 341 341 374
          375 342 342 375 376 343
          343 376 377 344 344 377
          378 345 345 378 379 346
          346 379 380 347 347 380
          381 348 348 381 382 349
          349 382 383 350 350 383
          384 351 351 384 385 352
          352 385 386 353 353 386
          387 354 354 387 388 355
          355 388 389 356 356 389
          390 357 357 390 391 358
          358 391 392 359 359 392
          393 360 360 393 394 361
          361 394 395 362 363 396
          397 364 364 397 398 365
          365 398 399 366 366 399
          400 367 367 400 401 368
          368 401 402 369 369 402
          403 370 370 403 404 371
          371 404 405 372 372 405
          406 373 373 406 407 374
          374 407 408 375 375 408
          409 376 376 409 410 377
          377 410 411 378 378 411
          412 379 379 412 413 380
          380 413 414 381 381 414
          415 382 382 415 416 383
          383 416 417 384 384 417
          418 385 385 418 419 386
          386 419 420 387 387 420
          421 388 388 421 422 389
          389 422 423 390 390 423
          424 391 391 424 425 392
          392 425 426 393 393 426
          427 394 394 427 428 395
          396 429 430 397 397 430
          431 398 398 431 432 399
          399 432 433 400 400 433
          434 401 401 434 435 402
          402 435 436 403 403 436
          437 404 404 437 438 405
          405 438 439 406 406 439
          440 407 407 440 441 408
          408 441 442 409 409 442
          443 410 410 443 444 411
          411 444 445 412 412 445
          446 413 413 446 447 414
          414 447 448 415 415 448
          449 416 416 449 450 417
          417 450 451 418 418 451
          452 419 419 452 453 420
          420 453 454 421 421 454
          455 422 422 455 456 423
          423 456 457 424 424 457
          458 425 425 458 459 426
          426 459 460 427 427 460
          461 428 429 462 463 430
          430 463 464 431 431 464
          465 432 432 465 466 433
          433 466 467 434 434 467
          468 435 435 468 469 436
          436 469 470 437 437 470
          471 438 438 471 472 439
          439 472 473 440 440 473
          474 441 441 474 475 442
          442 475 476 443 443 476
          477 444 444 477 478 445
          445 478 479 446 446 479
          480 447 447 480 481 448
          448 481 482 449 449 482
          483 450 450 483 484 451
          451 484 485 452 452 485
          486 453 453 486 487 454
          454 487 488 455 455 488
          489 456 456 489 490 457
          457 490 491 458 458 491
          492 459 459 492 493 460
          460 493 494 461 462 495
          496 463 463 496 497 464
          464 497 498 465 465 498
          499 466 466 499 500 467
          467 500 501 468 468 501
          502 469 469 502 503 470
          470 503 504 471 471 504
          505 472 472 505 506 473
          473 506 507 474 474 507
          508 475 475 508 509 476
          476 509 510 477 477 510
          511 478 478 511 512 479
          479 512 513 480 480 513
          514 481 481 514 515 482
          482 515 516 483 483 516
          517 484 484 517 518 485
          485 518 519 486 486 519
          520 487 487 520 521 488
          488 521 522 489 489 522
          523 490 490 523 524 491
          491 524 525 492 492 525
          526 493 493 526 527 494
          495 528 529 496 496 529
          530 497 497 530 531 498
          498 531 532 499 499 532
          533 500 500 533 534 501
          501 534 535 502 502 535
          536 503 503 536 537 504
          504 537 538 505 505 538
          539 506 506 539 540 507
          507 540 541 508 508 541
          542 509 509 542 543 510
          510 543 544 511 511 544
          545 512 512 545 546 513
          513 546 547 514 514 547
          548 515 515 548 549 516
          516 549 550 517 517 550
          551 518 518 551 552 519
          519 552 553 520 520 553
          554 521 521 554 555 522
          522 555 556 523 523 556
          557 524 524 557 558 525
          525 558 559 526 526 559
          560 527 528 561 562 529
          529 562 563 530 530 563
          564 531 531 564 565 532
          532 565 566 533 533 566
          567 534 534 567 568 535
          535 568 569 536 536 569
          570 537 537 570 571 538
          538 571 572 539 539 572
          573 540 540 573 574 541
          541 574 575 542 542 575
          576 543 543 576 577 544
          544 577 578 545 545 578
          579 546 546 579 580 547
          547 580 581 548 548 581
          582 549 549 582 583 550
          550 583 584 551 551 584
          585 552 552 585 586 553
          553 586 587 554 554 587
          588 555 555 588 589 556
          556 589 590 557 557 590
          591 558 558 591 592 559
          559 592 593 560 561 594
          595 562 562 595 596 563
          563 596 597 564 564 597
          598 565 565 598 599 566
          566 599 600 567 567 600
          601 568 568 601 602 569
          569 602 603 570 570 603
          604 571 571 604 605 572
          572 605 606 573 573 606
          607 574 574 607 608 575
          575 608 609 576 576 609
          610 577 577 610 611 578
          578 611 612 579 579 612
          613 580 580 613 614 581
          581 614 615 582 582 615
          616 583 583 616 617 584
          584 617 618 585 585 618
          619 586 586 619 620 587
          587 620 621 588 588 621
          622 589 589 622 623 590
          590 623 624 591 591 624
          625 592 592 625 626 593
          594 627 628 595 595 628
          629 596 596 629 630 597
          597 630 631 598 598 631
          632 599 599 632 633 600
          600 633 634 601 601 634
          635 602 602 635 636 603
          603 636 637 604 604 637
          638 605 605 638 639 606
          606 639 640 607 607 640
          641 608 608 641 642 609
          609 642 643 610 610 643
          644 611 611 644 645 612
          612 645 646 613 613 646
          647 614 614 647 648 615
          615 648 649 616 616 649
          650 617 617 650 651 618
          618 651 652 619 619 652
          653 620 620 653 654 621
          621 654 655 622 622 655
          656 623 623 656 657 624
          624 657 658 625 625 658
          659 626 627 660 661 628
          628 661 662 629 629 662
          663 630 630 663 664 631
          631 664 665 632 632 665
          666 633 633 666 667 634
          634 667 668 635 635 668
          669 636 636 669 670 637
          637 670 671 638 638 671
          672 639 639 672 673 640
          640 673 674 641 641 674
          675 642 642 675 676 643
          643 676 677 644 644 677
          678 645 645 678 679 646
          646 679 680 647 647 680
          681 648 648 681 682 649
          649 682 683 650 650 683
          684 651 651 684 685 652
          652 685 686 653 653 686
          687 654 654 687 688 655
          655 688 689 656 656 689
          690 657 657 690 691 658
          658 691 692 659 660 693
          694 661 661 694 695 662
          662 695 696 663 663 696
          697 664 664 697 698 665
          665 698 699 666 666 699
          700 667 667 700 701 668
          668 701 702 669 669 702
          703 670 670 703 704 671
          671 704 705 672 672 705
          706 673 673 706 707 674
          674 707 708 675 675 708
          709 676 676 709 710 677
          677 710 711 678 678 711
          712 679 679 712 713 680
          680 713 714 681 681 714
          715 682 682 715 716 683
          683 716 717 684 684 717
          718 685 685 718 719 686
          686 719 720 687 687 720
          721 688 688 721 722 689
          689 722 723 690 690 723
          724 691 691 724 725 692
          693 726 727 694 694 727
          728 695 695 728 729 696
          696 729 730 697 697 730
          731 698 698 731 732 699
          699 732 733 700 700 733
          734 701 701 734 735 702
          702 735 736 703 703 736
          737 704 704 737 738 705
          705 738 739 706 706 739
          740 707 707 740 741 708
          708 741 742 709 709 742
          743 710 710 743 744 711
          711 744 745 712 712 745
          746 713 713 746 747 714
          714 747 748 715 715 748
          749 716 716 749 750 717
          717 750 751 718 718 751
          752 719 719 752 753 720
          720 753 754 721 721 754
          755 722 722 755 756 723
          723 756 757 724 724 757
          758 725 726 759 760 727
          727 760 761 728 728 761
          762 729 729 762 763 730
          730 763 764 731 731 764
          765 732 732 765 766 733
          733 766 767 734 734 767
          768 735 735 768 769 736
          736 769 770 737 737 770
          771 738 738 771 772 739
          739 772 773 740 740 773
          774 741 741 774 775 742
          742 775 776 743 743 776
          777 744 744 777 778 745
          745 778 779 746 746 779
          780 747 747 780 781 748
          748 781 782 749 749 782
          783 750 750 783 784 751
          751 784 785 752 752 785
          786 753 753 786 787 754
          754 787 788 755 755 788
          789 756 756 789 790 757
          757 790 791 758 759 792
          793 760 760 793 794 761
          761 794 795 762 762 795
          796 763 763 796 797 764
          764 797 798 765 765 798
          799 766 766 799 800 767
          767 800 801 768 768 801
          802 769 769 802 803 770
          770 803 804 771 771 804
          805 772 772 805 806 773
          773 806 807 774 774 807
          808 775 775 808 809 776
          776 809 810 777 777 810
          811 778 778 811 812 779
          779 812 813 780 780 813
          814 781 781 814 815 782
          782 815 816 783 783 816
          817 784 784 817 818 785
          785 818 819 786 786 819
          820 787 787 820 821 788
          788 821 822 789 789 822
          823 790 790 823 824 791
          792 825 826 793 793 826
          827 794 794 827 828 795
          795 828 829 796 796 829
          830 797 797 830 831 798
          798 831 832 799 799 832
          833 800 800 833 834 801
          801 834 835 802 802 835
          836 803 803 836 837 804
          804 837 838 805 805 838
          839 806 806 839 840 807
          807 840 841 808 808 841
          842 809 809 842 843 810
          810 843 844 811 811 844
          845 812 812 845 846 813
          813 846 847 814 814 847
          848 815 815 848 849 816
          816 849 850 817 817 850
          851 818 818 851 852 819
          819 852 853 820 820 853
          854 821 821 854 855 822
          822 855 856 823 823 856
          857 824 825 858 859 826
          826 859 860 827 827 860
          861 828 828 861 862 829
          829 862 863 830 830 863
          864 831 831 864 865 832
          832 865 866 833 833 866
          867 834 834 867 868 835
          835 868 869 836 836 869
          870 837 837 870 871 838
          838 871 872 839 839 872
          873 840 840 873 874 841
          841 874 875 842 842 875
          876 843 843 876 877 844
          844 877 878 845 845 878
          879 846 846 879 880 847
          847 880 881 848 848 881
          882 849 849 882 883 850
          850 883 884 851 851 884
          885 852 852 885 886 853
          853 886 887 854 854 887
          888 855 855 888 889 856
          856 889 890 857 858 891
          892 859 859 892 893 860
          860 893 894 861 861 894
          895 862 862 895 896 863
          863 896 897 864 864 897
          898 865 865 898 899 866
          866 899 900 867 867 900
          901 868 868 901 902 869
          869 902 903 870 870 903
          904 871 871 904 905 872
          872 905 906 873 873 906
          907 874 874 907 908 875
          875 908 909 876 876 909
          910 877 877 910 911 878
          878 911 912 879 879 912
          913 880 880 913 914 881
          881 914 915 882 882 915
          916 883 883 916 917 884
          884 917 918 885 885 918
          919 886 886 919 920 887
          887 920 921 888 888 921
          922 889 889 922 923 890
          891 924 925 892 892 925
          926 893 893 926 927 894
          894 927 928 895 895 928
          929 896 896 929 930 897
          897 930 931 898 898 931
          932 899 899 932 933 900
          900 933 934 901 901 934
          935 902 902 935 936 903
          903 936 937 904 904 937
          938 905 905 938 939 906
          906 939 940 907 907 940
          941 908 908 941 942 909
          909 942 943 910 910 943
          944 911 911 944 945 912
          912 945 946 913 913 946
          947 914 914 947 948 915
          915 948 949 916 916 949
          950 917 917 950 951 918
          918 951 952 919 919 952
          953 920 920 953 954 921
          921 954 955 922 922 955
          956 923 924 957 958 925
          925 958 959 926 926 959
          960 927 927 960 961 928
          928 961 962 929 929 962
          963 930 930 963 964 931
          931 964 965 932 932 965
          966 933 933 966 967 934
          934 967 968 935 935 968
          969 936 936 969 970 937
          937 970 971 938 938 971
          972 939 939 972 973 940
          940 973 974 941 941 974
          975 942 942 975 976 943
          943 976 977 944 944 977
          978 945 945 978 979 946
          946 979 980 947 947 980
          981 948 948 981 982 949
          949 982 983 950 950 983
          984 951 951 984 985 952
          952 985 986 953 953 986
          987 954 954 987 988 955
          955 988 989 956 957 990
          991 958 958 991 992 959
          959 992 993 960 960 993
          994 961 961 994 995 962
          962 995 996 963 963 996
          997 964 964 997 998 965
          965 998 999 966 966 999
          1000 967 967 1000 1001 968
          968 1001 1002 969 969 1002
          1003 970 970 1003 1004 971
          971 1004 1005 972 972 1005
          1006 973 973 1006 1007 974
          974 1007 1008 975 975 1008
          1009 976 976 1009 1010 977
          977 1010 1011 978 978 1011
          1012 979 979 1012 1013 980
          980 1013 1014 981 981 1014
          1015 982 982 1015 1016 983
          983 1016 1017 984 984 1017
          1018 985 985 1018 1019 986
          986 1019 1020 987 987 1020
          1021 988 988 1021 1022 989
          990 1023 1024 991 991 1024
          1025 992 992 1025 1026 993
          993 1026 1027 994 994 1027
          1028 995 995 1028 1029 996
          996 1029 1030 997 997 1030
          1031 998 998 1031 1032 999
          999 1032 1033 1000 1000 1033
          1034 1001 1001 1034 1035 1002
          1002 1035 1036 1003 1003 1036
          1037 1004 1004 1037 1038 1005
          1005 1038 1039 1006 1006 1039
          1040 1007 1007 1040 1041 1008
          1008 1041 1042 1009 1009 1042
          1043 1010 1010 1043 1044 1011
          1011 1044 1045 1012 1012 1045
          1046 1013 1013 1046 1047 1014
          1014 1047 1048 1015 1015 1048
          1049 1016 1016 1049 1050 1017
          1017 1050 1051 1018 1018 1051
          1052 1019 1019 1052 1053 1020
          1020 1053 1054 1021 1021 1054
          1055 1022 1023 1056 1057 1024
          1024 1057 1058 1025 1025 1058
          1059 1026 1026 1059 1060 1027
          1027 1060 1061 1028 1028 1061
          1062 1029 1029 1062 1063 1030
          1030 1063 1064 1031 1031 1064
          1065 1032 1032 1065 1066 1033
          1033 1066 1067 1034 1034 1067
          1068 1035 1035 1068 1069 1036
          1036 1069 1070 1037 1037 1070
          1071 1038 1038 1071 1072 1039
          1039 1072 1073 1040 1040 1073
          1074 1041 1041 1074 1075 1042
          1042 1075 1076 1043 1043 1076
          1077 1044 1044 1077 1078 1045
          1045 1078 1079 1046 1046 1079
          1080 1047 1047 1080 1081 1048
          1048 1081 1082 1049 1049 1082
          1083 1050 1050 1083 1084 1051
          1051 1084 1085 1052 1052 1085
          1086 1053 1053 1086 1087 1054
          1054 1087 1088 1055
        </DataArray>
        <DataArray type="Int64" Name="offsets" format="ascii" RangeMin="4" RangeMax="4096">
          4 8 12 16 20 24
          28 32 36 40 44 48
          52 56 60 64 68 72
          76 80 84 88 92 96
          100 104 108 112 116 120
          124 128 132 136 140 144
          148 152 156 160 164 168
          172 176 180 184 188 192
          196 200 204 208 212 216
          220 224 228 232 236 240
          244 248 252 256 260 264
          268 272 276 280 284 288
          292 296 300 304 308 312
          316 320 324 328 332 336
          340 344 348 352 356 360
          364 368 372 376 380 384
          388 392 396 400 404 408
          412 416 420 424 428 432
          436 440 444 448 452 456
          460 464 468 472 476 480
          484 488 492 496 500 504
          508 512 516 520 524 528
          532 536 540 544 548 552
          556 560 564 568 572 576
          580 584 588 592 596 600
          604 608 612 616 620 624
          628 632 636 640 644 648
          652 656 660 664 668 672
          676 680 684 688 692 696
          700 704 708 712 716 720
          724 728 732 736 740 744
          748 752 756 760 764 768
          772 776 780 784 788 792
          796 800 804 808 812 816
          820 824 828 832 836 840
          844 848 852 856 860 864
          868 872 876 880 884 888
          892 896 900 904 908 912
          916 920 924 928 932 936
          940 944 948 952 956 960
          964 968 972 976 980 984
          988 992 996 1000 1004 1008
          1012 1016 1020 1024 1028 1032
          1036 1040 1044 1048 1052 1056
          1060 1064 1068 1072 1076 1080
          1084 1088 1092 1096 1100 1104
          1108 1112 1116 1120 1124 1128
          1132 1136 1140 1144 1148 1152
          1156 1160 1164 1168 1172 1176
          1180 1184 1188 1192 1196 1200
          1204 1208 1212 1216 1220 1224
          1228 1232 1236 1240 1244 1248
          1252 1256 1260 1264 1268 1272
          1276 1280 1284 1288 1292 1296
          1300 1304 1308 1312 1316 1320
          1324 1328 1332 1336 1340 1344
          1348 1352 1356 1360 1364 1368
          1372 1376 1380 1384 1388 1392
          1396 1400 1404 1408 1412 1416
          1420 1424 1428 1432 1436 1440
          1444 1448 1452 1456 1460 1464
          1468 1472 1476 1480 1484 1488
          1492 1496 1500 1504 1508 1512
          1516 1520 1524 1528 1532 1536
          1540 1544 1548 1552 1556 1560
          1564 1568 1572 1576 1580 1584
          1588 1592 1596 1600 1604 1608
          1612 1616 1620 1624 1628 1632
          1636 1640 1644 1648 1652 1656
          1660 1664 1668 1672 1676 1680
          1684 1688 1692 1696 1700 1704
          1708 1712 1716 1720 1724 1728
          1732 1736 1740 1744 1748 1752
          1756 1760 1764 1768 1772 1776
          1780 1784 1788 1792 1796 1800
          1804 1808 1812 1816 1820 1824
          1828 1832 1836 1840 1844 1848
          1852 1856 1860 1864 1868 1872
          1876 1880 1884 1888 1892 1896
          1900 1904 1908 1912 1916 1920
          1924 1928 1932 1936 1940 1944
          1948 1952 1956 1960 1964 1968
          1972 1976 1980 1984 1988 1992
          1996 2000 2004 2008 2012 2016
          2020 2024 2028 2032 2036 2040
          2044 2048 2052 2056 2060 2064
          2068 2072 2076 2080 2084 2088
          2092 2096 2100 2104 2108 2112
          2116 2120 2124 2128 2132 2136
          2140 2144 2148 2152 2156 2160
          2164 2168 2172 2176 2180 2184
          2188 2192 2196 2200 2204 2208
          2212 2216 2220 2224 2228 2232
          2236 2240 2244 2248 2252 2256
          2260 2264 2268 2272 2276 2280
          2284 2288 2292 2296 2300 2304
          2308 2312 2316 2320 2324 2328
          2332 2336 2340 2344 2348 2352
          2356 2360 2364 2368 2372 2376
          2380 2384 2388 2392 2396 2400
          2404 2408 2412 2416 2420 2424
          2428 2432 2436 2440 2444 2448
          2452 2456 2460 2464 2468 2472
          2476 2480 2484 2488 2492 2496
          2500 2504 2508 2512 2516 2520
          2524 2528 2532 2536 2540 2544
          2548 2552 2556 2560 2564 2568
          2572 2576 2580 2584 2588 2592
          2596 2600 2604 2608 2612 2616
          2620 2624 2628 2632 2636 2640
          2644 2648 2652 2656 2660 2664
          2668 2672 2676 2680 2684 2688
          2692 2696 2700 2704 2708 2712
          2716 2720 2724 2728 2732 2736
          2740 2744 2748 2752 2756 2760
          2764 2768 2772 2776 2780 2784
          2788 2792 2796 2800 2804 2808
          2812 2816 2820 2824 2828 2832
          2836 2840 2844 2848 2852 2856
          2860 2864 2868 2872 2876 2880
          2884 2888 2892 2896 2900 2904
          2908 2912 2916 2920 2924 2928
          2932 2936 2940 2944 2948 2952
          2956 2960 2964 2968 2972 2976
          2980 2984 2988 2992 2996 3000
          3004 3008 3012 3016 3020 3024
          3028 3032 3036 3040 3044 3048
          3052 3056 3060 3064 3068 3072
          3076 3080 3084 3088 3092 3096
          3100 3104 3108 3112 3116 3120
          3124 3128 3132 3136 3140 3144
          3148 3152 3156 3160 3164 3168
          3172 3176 3180 3184 3188 3192
          3196 3200 3204 3208 3212 3216
          3220 3224 3228 3232 3236 3240
          3244 3248 3252 3256 3260 3264
          3268 3272 3276 3280 3284 3288
          3292 3296 3300 3304 3308 3312
          3316 3320 3324 3328 3332 3336
          3340 3344 3348 3352 3356 3360
          3364 3368 3372 3376 3380 3384
          3388 3392 3396 3400 3404 3408
          3412 3416 3420 3424 3428 3432
          3436 3440 3444 3448 3452 3456
          3460 3464 3468 3472 3476 3480
          3484 3488 3492 3496 3500 3504
          3508 3512 3516 3520 3524 3528
          3532 3536 3540 3544 3548 3552
          3556 3560 3564 3568 3572 3576
          3580 3584 3588 3592 3596 3600
          3604 3608 3612 3616 3620 3624
          3628 3632 3636 3640 3644 3648
          3652 3656 3660 3664 3668 3672
          3676 3680 3684 3688 3692 3696
          3700 3704 3708 3712 3716 3720
          3724 3728 3732 3736 3740 3744
          3748 3752 3756 3760 3764 3768
          3772 3776 3780 3784 3788 3792
          3796 3800 3804 3808 3812 3816
          3820 3824 3828 3832 3836 3840
          3844 3848 3852 3856 3860 3864
          3868 3872 3876 3880 3884 3888
          3892 3896 3900 3904 3908 3912
          3916 3920 3924 3928 3932 3936
          3940 3944 3948 3952 3956 3960
          3964 3968 3972 3976 3980 3984
          3988 3992 3996 4000 4004 4008
          4012 4016 4020 4024 4028 4032
          4036 4040 4044 4048 4052 4056
          4060 4064 4068 4072 4076 4080
          4084 4088 4092 4096
        </DataArray>
        <DataArray type="UInt8" Name="types" format="ascii" RangeMin="9" RangeMax="9">
          9 9 9 9 9 9
          9 9 9 9 9 9
          9 9 9 9 9 9
          9 9 9 9 9 9
          9 9 9 9 9 9
          9 9 9 9 9 9
          9 9 9 9 9 9
          9 9 9 9 9 9
          9 9 9 9 9 9
          9 9 9 9 9 9
          9 9 9 9 9 9
          9 9 9 9 9 9
          9 9 9 9 9 9
          9 9 9 9 9 9
          9 9 9 9 9 9
          9 9 9 9 9 9
          9 9 9 9 9 9
          9 9 9 9 9 9
          9 9 9 9 9 9
          9 9 9 9 9 9
          9 9 9 9 9 9
          9 9 9 9 9 9
          9 9 9 9 9 9
          9 9 9 9 9 9
          9 9 9 9 9 9
          9 9 9 9 9 9
          9 9 9 9 9 9
          9 9 9 9 9 9
          9 9 9 9 9 9
          9 9 9 9 9 9
          9 9 9 9 9 9
          9 9 9 9 9 9
          9 9 9 9 9 9
          9 9 9 9 9 9
          9 9 9 9 9 9
          9 9 9 9 9 9
          9 9 9 9 9 9
          9 9 9 9 9 9
          9 9 9 9 9 9
          9 9 9 9 9 9
          9 9 9 9 9 9
          9 9 9 9 9 9
          9 9 9 9 9 9
          9 9 9 9 9 9
          9 9 9 9 9 9
          9 9 9 9 9 9
          9 9 9 9 9 9
          9 9 9 9 9 9
          9 9 9 9 9 9
          9 9 9 9 9 9
          9 9 9 9 9 9
          9 9 9 9 9 9
          9 9 9 9 9 9
          9 9 9 9 9 9
          9 9 9 9 9 9
          9 9 9 9 9 9
          9 9 9 9 9 9
          9 9 9 9 9 9
          9 9 9 9 9 9
          9 9 9 9 9 9
          9 9 9 9 9 9
          9 9 9 9 9 9
          9 9 9 9 9 9
          9 9 9 9 9 9
          9 9 9 9 9 9
          9 9 9 9 9 9
          9 9 9 9 9 9
          9 9 9 9 9 9
          9 9 9 9 9 9
          9 9 9 9 9 9
          9 9 9 9 9 9
          9 9 9 9 9 9
          9 9 9 9 9 9
          9 9 9 9 9 9
          9 9 9 9 9 9
          9 9 9 9 9 9
          9 9 9 9 9 9
          9 9 9 9 9 9
          9 9 9 9 9 9
          9 9 9 9 9 9
          9 9 9 9 9 9
          9 9 9 9 9 9
          9 9 9 9 9 9
          9 9 9 9 9 9
          9 9 9 9 9 9
          9 9 9 9 9 9
          9 9 9 9 9 9
          9 9 9 9 9 9
          9 9 9 9 9 9
          9 9 9 9 9 9
          9 9 9 9 9 9
          9 9 9 9 9 9
          9 9 9 9 9 9
          9 9 9 9 9 9
          9 9 9 9 9 9
          9 9 9 9 9 9
          9 9 9 9 9 9
          9 9 9 9 9 9
          9 9 9 9 9 9
          9 9 9 9 9 9
          9 9 9 9 9 9
          9 9 9 9 9 9
          9 9 9 9 9 9
          9 9 9 9 9 9
          9 9 9 9 9 9
          9 9 9 9 9 9
          9 9 9 9 9 9
          9 9 9 9 9 9
          9 9 9 9 9 9
          9 9 9 9 9 9
          9 9 9 9 9 9
          9 9 9 9 9 9
          9 9 9 9 9 9
          9 9 9 9 9 9
          9 9 9 9 9 9
          9 9 9 9 9 9
          9 9 9 9 9 9
          9 9 9 9 9 9
          9 9 9 9 9 9
          9 9 9 9 9 9
          9 9 9 9 9 9
          9 9 9 9 9 9
          9 9 9 9 9 9
          9 9 9 9 9 9
          9 9 9 9 9 9
          9 9 9 9 9 9
          9 9 9 9 9 9
          9 9 9 9 9 9
          9 9 9 9 9 9
          9 9 9 9 9 9
          9 9 9 9 9 9
          9 9 9 9 9 9
          9 9 9 9 9 9
          9 9 9 9 9 9
          9 9 9 9 9 9
          9 9 9 9 9 9
          9 9 9 9 9 9
          9 9 9 9 9 9
          9 9 9 9 9 9
          9 9 9 9 9 9
          9 9 9 9 9 9
          9 9 9 9 9 9
          9 9 9 9 9 9
          9 9 9 9 9 9
          9 9 9 9 9 9
          9 9 9 9 9 9
          9 9 9 9 9 9
          9 9 9 9 9 9
          9 9 9 9 9 9
          9 9 9 9 9 9
          9 9 9 9 9 9
          9 9 9 9 9 9
          9 9 9 9 9 9
          9 9 9 9 9 9
          9 9 9 9 9 9
          9 9 9 9 9 9
          9 9 9 9 9 9
          9 9 9 9 9 9
          9 9 9 9 9 9
          9 9 9 9 9 9
          9 9 9 9 9 9
          9 9 9 9 9 9
          9 9 9 9 9 9
          9 9 9 9 9 9
          9 9 9 9 9 9
          9 9 9 9 9 9
          9 9 9 9 9 9
          9 9 9 9 9 9
          9 9 9 9 9 9
          9 9 9 9 9 9
          9 9 9 9
        </DataArray>
      </Cells>
    </Piece>
  </UnstructuredGrid>
</VTKFile>
